     192
 i =        1, E =     -1101.4702703233
  O         3.8782400121        6.0326589120        2.4874834662
  H         3.1850941676        5.3514166966        2.3119613888
  H         4.6854143217        5.7725753593        2.0022836478
  O        11.6741770312       10.9889084035        7.5211649650
  H        11.6009905040       10.0775986606        7.1896820591
  H        11.4008026125       11.5675544010        6.7818302209
  O         2.1616288925       10.9853809425        3.5842234437
  H         1.8494265377       10.0536674146        3.6640164945
  H         2.6918172036       11.1797891718        4.3787983866
  O         1.9328761733        2.2814108023        3.7709280552
  H         2.4713608020        1.6971808967        4.3323208828
  H         1.6264323606        2.9366669614        4.4212581774
  O         8.8568729678        1.8818461897        8.3830515382
  H         8.5162053876        1.4262101875        7.5938091424
  H         8.7597001842        2.8148460476        8.1183872579
  O         8.8439451071        8.0463115988        3.1603816812
  H         9.7714249379        8.3356739926        3.0118560162
  H         8.9448333854        7.1624881226        3.5692711982
  O         2.0394436701        1.9547021783        9.3138875985
  H         2.3804096460        1.2733590662        9.9161359021
  H         1.5812664333        2.5682939922        9.9099393706
  O         7.4035165328       11.5326659106        5.3404344155
  H         7.7469841278       12.4469890271        5.4476166227
  H         8.0723840541       11.0305789205        5.8574943791
  O         1.7903393504        9.5280716424        6.6781943515
  H         1.3108484093       10.0909328687        6.0457100635
  H         1.3043968401        8.6886671818        6.7455757427
  O         3.8259125356       11.6734296952        7.2565453596
  H         2.9946844441       11.6518262387        6.7557563731
  H         4.4032707981       10.9280266939        7.0026604460
  O        11.1793660728        6.1114403332        5.5200554319
  H        10.3670451248        6.1975044047        6.0500538368
  H        11.8701021050        6.2408596905        6.1852437228
  O         2.5605271999        0.2645279195        1.4493618867
  H         3.3599024831        0.5302207145        0.9709059524
  H         1.9197403956        0.0725478149        0.7474782537
  O         5.4841300095        7.7883949492        1.0355970224
  H         4.7448917574        8.1121870240        1.5655424956
  H         6.1730925407        7.6032891290        1.6885439431
  O         5.3725600687       10.7602048102        0.6163797404
  H         4.5847854219       10.7300922508        1.1774034792
  H         5.4080356428        9.9683345533        0.0530616343
  O        11.7881555352        0.8933989540        9.4226365204
  H        11.3784967559        0.7977191063        8.5515609422
  H        11.7794804495       -0.0179043997        9.7484439225
  O         6.9223473637        2.2979053567        3.0753048997
  H         6.6297899686        1.9616046214        2.1996618792
  H         6.5182460664        1.7249590231        3.7523396290
  O         6.7993509955        9.4179840086        3.1329834670
  H         6.1065676268       10.0430450913        2.8727257187
  H         7.2212802333        9.7729460170        3.9288599116
  O         5.1912097374        1.4170323535        5.9174882656
  H         4.9539998027        2.0311883811        6.6293674043
  H         5.5794646876        0.6272500346        6.3476926347
  O         7.8067609805        4.3341099113       10.4859156839
  H         8.5345365500        4.5641663989        9.8896624483
  H         7.2642288340        5.1420413371       10.4420740233
  O         0.9626402386        9.5466352892        0.5556532011
  H         1.1971042489       10.2844654502       -0.0324617209
  H         0.0304261109        9.4005988510        0.3101580948
  O         6.8284258986        8.1458563271       11.2522206134
  H         7.3411725624        8.7251064059       11.8498437189
  H         7.0367448633        7.2618535214       11.6261258371
  O         2.8676244963       10.2005481447        9.3809203165
  H         3.2680118970        9.5974821830        8.7150920576
  H         2.2205753955       10.6645835739        8.7949151188
  O        11.1878736718        3.4898685856        4.2162799787
  H        11.7591727185        3.9448233323        4.8770771620
  H        11.6521318322        2.6792437667        3.9498954557
  O         8.4952665259        2.6452566980        5.5466776073
  H         7.5382210320        2.6208225472        5.7035145238
  H         8.6206702787        2.5651363277        4.5831386893
  O         5.9289437810        6.6935322445        3.9389694523
  H         6.6880378634        7.1740379531        4.3115750304
  H         5.4429969768        6.2258869153        4.6457518442
  O         9.7856541023        1.8892889302        1.2721243821
  H         9.5706405204        1.7362602180        2.2051452739
  H        10.5837494649        1.3672408684        1.0912761666
  O        10.0866927864       10.1453139295       10.4251902077
  H        10.4110912360       10.7972498057       11.0678598541
  H         9.1250312329       10.2815061841       10.4608920496
  O         0.8034426881        4.7937696109        2.1380840183
  H         0.7225354222        3.8200172452        2.1181863956
  H         0.4402678656        5.0879833591        3.0080813556
  O         2.2031540390        3.7570690586        6.5756660256
  H         2.7972322299        3.0893558433        6.9687988910
  H         1.6613706207        3.9100208345        7.3662008543
  O         6.9919213348       11.3732051366       10.7285899972
  H         7.0218024649       12.3369143825       10.6037077142
  H         7.2788691945       11.2528542590       11.6562210866
  O        11.9934024093        8.5248346256        3.5322410592
  H        12.3238945526        8.2854819886        4.4148325634
  H        12.3545810862        7.7809698966        3.0168932629
  O         1.2462541970        2.5205707698       -0.0059956727
  H         1.9728882698        2.4555877038        0.6367185988
  H         0.4852683365        2.1290212852        0.4478065880
  O         5.5025412822        8.8740463902        6.6376485475
  H         5.8940877163        9.3970836444        5.9212198944
  H         5.1538679212        8.0793211481        6.2022143021
  O        11.5910263367        4.7934835551        9.4918503429
  H        12.2829093024        4.7210218294        8.8107439854
  H        10.7212354778        4.7204687772        9.0762170004
  O         3.2619590793        4.7740334795       12.1874289891
  H         3.6268256785        3.8811927045       12.1507219981
  H         2.2976046752        4.6755095845       12.1287009251
  O         2.6794330472        6.6857665989        7.8037458383
  H         1.9202852206        6.2854491212        7.3484079845
  H         3.1665527141        7.2064657783        7.1468491537
  O         3.9425402636       12.3185399042       11.1805436230
  H         4.3719479854       12.3156363679       10.3089075809
  H         3.7993734876       11.3567788678       11.2649568239
  O         4.3241556939        2.7587551346        2.0479229904
  H         4.1888809182        2.0418459497        2.6841796913
  H         4.7392079268        3.4369507286        2.6110247592
  O         0.1665037526        9.2769124042       10.2943459194
  H         1.1188572011        9.0855427531       10.2261932146
  H        -0.0042368673       10.0280051801        9.7041262971
  O         3.9362434911        8.9679548951        3.8276014074
  H         4.0412915199        7.9986951119        3.7538708766
  H         3.7876714017        9.2295768602        4.7484063075
  O         5.3635869537        4.3047272918        5.9171070141
  H         6.0142403360        4.1857252660        6.6278006035
  H         4.5731611926        4.6851240772        6.3357342372
  O         6.4830545894       11.3512685309        7.7446870813
  H         6.0727615208       11.6140614496        8.5819184363
  H         6.8292880349       10.4531508343        7.9269053092
  O        -0.1241815974       11.9385233225        2.1960081744
  H         0.5745557482       12.4013895640        2.6979652603
  H         0.2437811387       11.0330957033        2.2006811725
  O         9.0449489825        9.8822790653        0.7046508730
  H         9.9434136135        9.6561686565        0.9904657344
  H         8.4548598110        9.8848561916        1.4837082426
  O         8.8848958187        6.9579204762        9.9382462805
  H         9.7751904358        6.7744780855       10.2875550547
  H         8.7253708424        7.9084132413       10.0875972193
  O         1.8675059760        6.5042761600        4.3755490897
  H         2.0363715987        5.6266940588        4.7636460599
  H         1.9986130941        7.1760381484        5.0620982915
  O         1.3444684445        5.9384622221       10.3865053814
  H         0.6701591807        6.1938102878       11.0483316410
  H         1.3354858268        6.6540839046        9.7307014308
  O         6.2319377568        6.5628834116        8.0955984013
  H         6.6071593758        6.4478559383        7.2061359814
  H         5.5036543887        5.9316313662        8.1877728667
  O        10.7981343501        2.9059783173        6.6869158267
  H        10.6706327951        1.9435250013        6.5114741221
  H        11.2300029928        3.0089434759        7.5504447260
  O         4.3533477400        7.0399571705       11.0365411856
  H         5.0313470892        6.7787620443       10.3944391038
  H         3.4948886396        7.0608495007       10.5896581175
  O         8.1654276964        5.4450411847        5.0350952281
  H         8.8872800168        4.9589066182        4.6043871494
  H         7.4210168741        4.9138948417        4.6933567229
  O         4.1333500372        3.7553742742        9.1986604419
  H         4.2288675371        3.1071577684        9.9188776349
  H         4.1784782200        4.6027022492        9.6762807415
  O         1.3602606915        0.9598236648        6.7590012495
  H         1.1007606492        0.5619270709        5.9170854370
  H         0.7602642089        1.7157002911        6.8888375956
  O         7.5713390779        4.6209223691        2.4641519707
  H         8.3620000270        4.0950186136        2.2074681503
  H         7.8114784711        5.5566660037        2.3220687166
  O        10.6254086412        5.1050575560        1.7114796541
  H        10.7352497552        4.1689485446        1.9485849197
  H        10.3398456432        5.5574554441        2.5195892871
  O         1.7601149630        7.1419131045        1.5410284456
  H         1.0041731665        7.1533797159        0.9394786861
  H         2.4403867150        7.6968521476        1.1257268854
  O         9.3642598561        6.8935537680        0.6618203816
  H         8.7192045857        7.5549222329        0.9473567888
  H        10.2321157389        7.2872351641        0.8515618617
  O        10.7914119838        7.7833459701        7.9330624609
  H         9.8205795654        7.6835585450        7.8747168773
  H        10.9481114651        8.3319305252        8.7225862678
  O         9.0658389667       11.4535620908        7.9045221620
  H         9.3074921356       10.5301764134        8.0574705156
  H         9.4111175747       11.8989212884        8.6930682207
  O         6.3685258621        4.3401846576        0.1810583211
  H         5.9688180264        3.4708283897        0.0234059987
  H         5.7199554407        5.0485726635        0.0510521627
  O        10.0961250974       11.0522114008        4.3538793199
  H        10.9022506536       10.9769322097        3.8173258332
  H         9.3725502535       11.0191546162        3.7051194932
  O         9.2950571273        8.4658211491        5.7514106181
  H         8.3313570538        8.6112102510        5.6731196810
  H         9.7156057250        9.3010428064        6.0357840324
  O         7.3548857913       11.9604087747        1.6608319129
  H         7.3693463929       12.0721022961        2.6269202600
  H         8.0930664568       12.4188964897        1.2306590456
  O         5.3460402504       11.9196030783        4.0564278466
  H         4.5807984859       12.1896422810        3.5333470352
  H         5.0561359569       11.2344739571        4.6854954694
     192
 i =        2, E =     -1101.5139565807
  O         3.9509619059        5.9500860763        2.6736356948
  H         3.1370433535        5.3883907708        2.2149482848
  H         4.6845428166        5.7550642212        1.9635103931
  O        11.8625087847       10.9562382739        7.4902192546
  H        11.5625618844       10.0241186330        7.1810582743
  H        11.3521652432       11.5335036054        6.7930568878
  O         1.9916981420       11.0849077569        3.6786337087
  H         1.9198615684       10.0085219667        3.6291589660
  H         2.7243052531       11.1569450796        4.4037104519
  O         1.8234205276        2.2203489305        3.8082269418
  H         2.4964907915        1.6921302398        4.3364241127
  H         1.6630019560        2.9772455990        4.4619736503
  O         8.7560099324        1.8403054806        8.4482905699
  H         8.5169020906        1.3923540843        7.5860965521
  H         8.7875502213        2.7969577714        8.1406864217
  O         8.8584648638        7.9638940413        3.0222717733
  H         9.8480721570        8.3194773804        3.1160810802
  H         8.9599624112        7.1366526075        3.6271709590
  O         2.0862806829        1.9951171839        9.3239359096
  H         2.3555910406        1.2387492778        9.9125367830
  H         1.5633123071        2.5522265282        9.9549746867
  O         7.5401969891       11.4677020561        5.1720296205
  H         7.7350838893       12.4594783270        5.4343755966
  H         8.1545077513       11.0604986164        5.9274089037
  O         1.8686711209        9.4638991637        6.5788050039
  H         1.2587732370       10.0842128280        6.0606923246
  H         1.2428422785        8.6893296807        6.7850924617
  O         3.8708915752       11.7479237998        7.1928123682
  H         2.9841548774       11.6753626404        6.7654729124
  H         4.4000716110       10.9067092798        7.0278827330
  O        11.2206675929        6.0429971423        5.5122004317
  H        10.3582979458        6.2266852429        5.9896634935
  H        11.8731553920        6.2747601912        6.2191288371
  O         2.6188291382        0.2865732410        1.4372371402
  H         3.3981730318        0.5397887605        0.8896402586
  H         1.9373201302        0.0865278995        0.7555509457
  O         5.5043089647        7.7799598684        1.0778549138
  H         4.7385634614        8.0589788337        1.6205215242
  H         6.1674728530        7.6578981003        1.7931585531
  O         5.3093755162       10.7210375514        0.6041218600
  H         4.5258149286       10.6632659408        1.1815969324
  H         5.3533466786        9.8711823669        0.1028401504
  O        11.7116925908        0.9083983911        9.4759206491
  H        11.3476139603        0.8070224787        8.5700949395
  H        11.8014904086       -0.0447943207        9.7348608810
  O         7.0604023143        2.1655844104        3.1476487712
  H         6.6154272238        1.9669285751        2.2345961551
  H         6.4276767755        1.6391567069        3.7720135195
  O         6.7761444906        9.4293948462        3.1234466794
  H         6.0817111386       10.0755654187        2.8770518061
  H         7.2312357977        9.8467563958        3.8860983973
  O         5.3111685964        1.5146506909        5.8872377200
  H         4.9550675081        2.0357973423        6.6650508306
  H         5.5044161186        0.6062179412        6.3505692519
  O         7.7946819427        4.2386654912       10.3496847365
  H         8.5871866222        4.5975639399        9.8507731175
  H         7.3102744054        5.1271201082       10.4743930369
  O         0.9346930591        9.6611713551        0.6711512071
  H         1.2205286671       10.2920192658       -0.0719015444
  H         0.0390079428        9.3673795044        0.2477256115
  O         6.9890636209        8.2148530774       11.1092539391
  H         7.3766229857        8.7696584328       11.8899436410
  H         7.0240713651        7.2999853760       11.5986091450
  O         2.7563036973       10.0702777175        9.4859106756
  H         3.3208732872        9.5917285091        8.7574974584
  H         2.2576635705       10.7212421581        8.8115353451
  O        11.2064667355        3.5211650748        4.0096611467
  H        11.6399103327        3.9257889606        4.8883041262
  H        11.7115602674        2.6383764881        3.9455353181
  O         8.4454727433        2.4826974992        5.5675685991
  H         7.4471799111        2.6051817097        5.6245315003
  H         8.5596161208        2.5969179130        4.5592687163
  O         5.8562581798        6.8196348201        3.9351625555
  H         6.7101137352        7.1641126027        4.3312301524
  H         5.4983944196        6.1326959157        4.6286131209
  O         9.7915448869        1.8949809763        1.2836609515
  H         9.5573803685        1.7179454847        2.2217519381
  H        10.5811844612        1.3305519582        1.1162680546
  O        10.0431974956       10.1913971508       10.3545609674
  H        10.3970617017       10.7611196596       11.0941510626
  H         9.0623073906       10.3075688470       10.4930907820
  O         1.0534426881        4.7547916134        2.1709851146
  H         0.7267682856        3.7703587492        2.1453916555
  H         0.4275539627        5.0705466633        2.9722787545
  O         2.2072302864        3.8033907349        6.5892764352
  H         2.7976321653        3.0774007930        6.9397735091
  H         1.6586872065        3.9261016436        7.3983656560
  O         7.1361771550       11.3594084738       10.6631291087
  H         7.0457580850       12.3587051323       10.6158486799
  H         7.1913596120       11.2567807838       11.7059894586
  O        12.0414773358        8.5626164011        3.4862234315
  H        12.2156092813        8.2441612563        4.4335076597
  H        12.4424885578        7.8062863174        2.9794385755
  O         1.2612836884        2.5256470808       -0.0127614233
  H         1.9764260227        2.4415678529        0.6665986363
  H         0.4769701056        2.1323927726        0.4268484599
  O         5.4567231668        8.9343394825        6.6059510216
  H         5.8923180643        9.4165765865        5.8646955453
  H         5.2184782099        8.0640998806        6.1788432273
  O        11.5169063780        4.7353518483        9.5090381967
  H        12.2477333455        4.7549671041        8.8395533539
  H        10.6782441149        4.7088301533        8.9970788876
  O         3.2948320273        4.7360038506       12.1834526404
  H         3.6065745205        3.8097136099       12.2051725201
  H         2.3131263428        4.6689748651       12.1319332765
  O         2.6660196763        6.7291917873        7.8267819236
  H         1.9653123462        6.2417315507        7.3181838926
  H         3.1748665214        7.2244041334        7.1489008236
  O         3.8231966189       12.3796787672       11.1039409991
  H         4.3826166058       12.3420226327       10.2745290586
  H         3.8241358536       11.3780823593       11.2993518204
  O         4.3019589509        2.7527023411        2.0167532121
  H         4.1296142995        2.0514224355        2.6808783346
  H         4.7839184178        3.4513174353        2.5404240970
  O         0.1620394650        9.2130018127       10.2333214429
  H         1.1670865862        9.1554963195       10.2127939740
  H        -0.0014652472       10.0080984253        9.6737906081
  O         3.8989700894        8.9488218826        3.8264722029
  H         4.0794960590        7.9690095925        3.7422046770
  H         3.7884479631        9.1412682699        4.7789147599
  O         5.3711490660        4.3771223565        5.9097695963
  H         5.9991325627        4.2026858732        6.6528215148
  H         4.5283772948        4.6380827520        6.3809112814
  O         6.2702041048       11.3397625461        7.7482409419
  H         6.0263142473       11.5801449352        8.7025497595
  H         6.8133523073       10.4963157069        7.9881854077
  O        -0.1993599700       11.9388950898        2.2577668951
  H         0.5913708337       12.4157155735        2.6684067648
  H         0.2507485014       11.0350732323        2.1208046066
  O         9.0218163819        9.9306648555        0.6987978703
  H         9.9101828064        9.6441454927        1.0016838473
  H         8.4255336173        9.9040148961        1.4969407086
  O         8.9573828147        6.9419632481        9.7717830764
  H         9.7900668450        6.7785525348       10.3565026398
  H         8.6720076927        7.8713032359       10.1610852355
  O         1.7553307171        6.5017478389        4.4345856669
  H         2.0904167452        5.6217440918        4.7978720341
  H         2.0428220862        7.1862495170        5.0997820663
  O         1.4746877746        6.0146438248       10.4256719209
  H         0.6389839697        6.1610215597       11.0109073117
  H         1.3229223025        6.7014991225        9.7114464987
  O         6.2019930833        6.5610020354        8.1044345894
  H         6.6323269586        6.4103707990        7.2269863454
  H         5.5004992833        5.8792853940        8.1701162221
  O        11.0343168396        2.9854281208        6.6962164616
  H        10.6244090637        2.0071150412        6.5687464361
  H        11.2591061316        2.9219344370        7.7229062441
  O         4.3277348480        7.0740341797       11.0048000456
  H         5.0312160300        6.8738533092       10.3499614698
  H         3.4551897456        6.9593236145       10.5502384312
  O         8.2043582608        5.4769128769        5.0964414816
  H         8.9261293851        4.9470382901        4.6773921685
  H         7.4388402313        5.0036888671        4.6371690788
  O         4.2483255829        3.8239207420        9.1449822902
  H         4.1918967320        3.1052126639        9.8546916573
  H         4.1284246667        4.6437455337        9.7453407871
  O         1.3548261126        0.8819256862        6.7173786678
  H         1.0419809517        0.5838024640        5.8297047561
  H         0.7975423094        1.6854697759        6.9048225368
  O         7.6165195906        4.6753766187        2.6808131407
  H         8.3632431773        4.1463609141        2.1168358180
  H         7.8724110161        5.6032611560        2.2406292099
  O        10.5115451888        5.0640402156        1.6853700453
  H        10.7651949620        4.1439543216        1.9908797080
  H        10.3189487886        5.5131414666        2.5460922282
  O         1.6799959748        7.1863402032        1.5749507178
  H         0.9933994393        7.1468440913        0.8639412581
  H         2.4105560988        7.6771113147        1.1232603865
  O         9.2935502180        6.9479223121        0.5086524759
  H         8.7259708622        7.6354251592        0.9670548907
  H        10.1950251728        7.2474318183        0.8441630046
  O        10.8735611947        7.8934246456        7.8881490583
  H         9.8852695024        7.6628524422        7.8866848733
  H        10.9627323466        8.2946274552        8.8277485482
  O         9.1196540220       11.4555705634        7.8671979177
  H         9.3679229569       10.5325104392        8.0929514594
  H         9.4046538674       11.9127899105        8.6960958878
  O         6.3084417096        4.3786379931        0.1526335088
  H         5.9058833200        3.5006366014        0.0095794674
  H         5.5889236587        5.0359296905        0.0505036297
  O        10.1315344824       11.1064570022        4.3664115404
  H        10.9195348095       10.9838154350        3.7784476026
  H         9.3634485618       11.0080050732        3.7430763083
  O         9.2788697688        8.3932620399        5.9422611607
  H         8.3213379604        8.6421762936        5.6572224218
  H         9.6958033446        9.3493431439        5.9972766752
  O         7.4071845488       12.0080711079        1.6678022896
  H         7.3978773306       12.1210609230        2.6427744565
  H         8.1701390273       12.5066563101        1.3138074511
  O         5.3269978580       11.9022641177        3.9046743054
  H         4.4761020776       12.1571929265        3.4797954901
  H         5.0718995995       11.2845657815        4.6533743106
     192
 i =        3, E =     -1101.6476225308
  O         3.9062866469        5.9582490856        2.5577042752
  H         3.1530784675        5.3681534798        2.2824624712
  H         4.6910506137        5.7530442571        2.0125901836
  O        11.8115409167       10.9429074660        7.4789188469
  H        11.5854117976       10.0170966144        7.1931853440
  H        11.3868615214       11.5324602584        6.7920581809
  O         2.0695927013       11.0288641288        3.6730877355
  H         1.8758191712       10.0411979484        3.6479558549
  H         2.6918975575       11.1773787700        4.4138803468
  O         1.8420201585        2.2317360396        3.8228846307
  H         2.4830068819        1.6806547393        4.3379544140
  H         1.6507160592        2.9711763909        4.4593404883
  O         8.7802568576        1.8412435700        8.4239796589
  H         8.5034656694        1.3890870366        7.5951532676
  H         8.7696143521        2.7902755523        8.1558891815
  O         8.9060805675        7.9782666502        3.1165756638
  H         9.8381763515        8.3063183022        3.0798630909
  H         8.9473348209        7.1244953133        3.6026841270
  O         2.0844809447        1.9945521174        9.3334273515
  H         2.3572090280        1.2363730049        9.9092401938
  H         1.5633268682        2.5518475664        9.9579355444
  O         7.5245800119       11.4930067229        5.2773282170
  H         7.7483781201       12.4482070849        5.3866165959
  H         8.1619915078       11.0500752660        5.8752532889
  O         1.8471668743        9.4646118316        6.5838897075
  H         1.2691561172       10.0808256447        6.0550191327
  H         1.2559957636        8.6854851537        6.7825728523
  O         3.8565508193       11.7394403937        7.1988704652
  H         2.9833492942       11.6777505298        6.7631164309
  H         4.3931504095       10.9197023545        7.0257523444
  O        11.2198488937        6.0535231614        5.5157513552
  H        10.3593971055        6.2223308467        5.9839030487
  H        11.8735400744        6.2742581207        6.2148235368
  O         2.6315210258        0.2816752954        1.4312273631
  H         3.4032073237        0.5412841543        0.8805019660
  H         1.9417869416        0.0881238996        0.7590340525
  O         5.5120500192        7.7802631691        1.0890022150
  H         4.7332889018        8.0500483963        1.6158000651
  H         6.1750097571        7.6623333985        1.8014404210
  O         5.2949367519       10.7189567628        0.5901055524
  H         4.5224205547       10.6556182936        1.1824954370
  H         5.3462858454        9.8552563752        0.1136532794
  O        11.7088416578        0.9017459949        9.4758685543
  H        11.3421762669        0.8084584827        8.5738274960
  H        11.8008296800       -0.0434869957        9.7377909229
  O         6.9957339275        2.1732046987        3.1463243084
  H         6.6453159775        1.9481197582        2.2402743043
  H         6.4636936046        1.6291766443        3.7788397319
  O         6.7794452652        9.4353738396        3.1208324186
  H         6.0819266821       10.0777916286        2.8779708647
  H         7.2318875616        9.8579217706        3.8786871721
  O         5.2871819572        1.4961951428        5.9045870724
  H         4.9684892967        2.0453001435        6.6552187718
  H         5.5235631288        0.6211869814        6.3437893670
  O         7.8151621840        4.2610716706       10.3555315515
  H         8.5873598659        4.5846380279        9.8401289658
  H         7.3005950889        5.1074098028       10.4608907703
  O         0.9319888493        9.6494914394        0.6211248146
  H         1.2235473056       10.3079664585       -0.0546552095
  H         0.0372450488        9.3812117378        0.2708869736
  O         6.9604452614        8.2207348640       11.1763041545
  H         7.3973364396        8.7835272973       11.8539196586
  H         7.0465638384        7.3084701755       11.5633926961
  O         2.8097586054       10.1276862587        9.4303036016
  H         3.2950211886        9.5625147304        8.7914643081
  H         2.2333403738       10.6861466302        8.8473016532
  O        11.1979524595        3.4827492430        4.0656201554
  H        11.6451514259        3.9403500030        4.8468510687
  H        11.7049160960        2.6524110576        3.9223703515
  O         8.4266254239        2.5057170538        5.5510609155
  H         7.4465833280        2.5838227505        5.6369890548
  H         8.5619942008        2.5703500655        4.5656828748
  O         5.8851655250        6.7894744568        3.9545898461
  H         6.7052476565        7.1758969160        4.3329291011
  H         5.4909531480        6.1509611185        4.6242340525
  O         9.7931159943        1.8906186343        1.2874163621
  H         9.5579420999        1.7172780212        2.2234208033
  H        10.5787163066        1.3243870853        1.1230360812
  O        10.0319682420       10.1915456450       10.3645436978
  H        10.3937125580       10.7605564346       11.0883865615
  H         9.0573358788       10.3141516396       10.4892526492
  O         0.9471759567        4.7323870848        2.1678142854
  H         0.7825457531        3.7762692087        2.1447801821
  H         0.4946835906        5.0723079771        2.9766217438
  O         2.2062156846        3.7994928018        6.5931878150
  H         2.7992113806        3.0804350019        6.9372315679
  H         1.6598788384        3.9295428345        7.3980023306
  O         7.0952584106       11.3781201322       10.6981657564
  H         7.0688442509       12.3550841795       10.6041651886
  H         7.2162514653       11.2482206048       11.6882277681
  O        12.0219407229        8.5471057375        3.4915503051
  H        12.2141523756        8.2479207810        4.4217802481
  H        12.4610624707        7.8201341035        2.9758488063
  O         1.2644056923        2.5229434191       -0.0122539197
  H         1.9729231278        2.4387852386        0.6697269663
  H         0.4775738393        2.1347475588        0.4222120411
  O         5.4581590001        8.9331179334        6.5931888012
  H         5.8912578602        9.4215880733        5.8593490382
  H         5.2217959964        8.0648845880        6.1765315079
  O        11.5135793419        4.7333537540        9.5105699380
  H        12.2373560846        4.7578814707        8.8422943415
  H        10.6813413722        4.7140858580        8.9920777474
  O         3.2996157586        4.7288675165       12.1816902103
  H         3.6001736479        3.8004703847       12.2169821397
  H         2.3203582143        4.6653032846       12.1340123916
  O         2.6658721314        6.7284029054        7.8250896822
  H         1.9742276774        6.2416330735        7.3141026601
  H         3.1735968387        7.2281624815        7.1535977022
  O         3.8467893173       12.3698895327       11.1027909699
  H         4.3682658825       12.3564603858       10.2680324164
  H         3.8063675054       11.3903623792       11.2982375754
  O         4.3185105510        2.7480494214        2.0109206963
  H         4.1188058578        2.0598970158        2.6795550491
  H         4.7772084421        3.4522942432        2.5340521433
  O         0.1762253182        9.2220448665       10.2432427362
  H         1.1680763152        9.1516208742       10.1965585629
  H        -0.0099864339        9.9965255849        9.6691014042
  O         3.8795119452        8.9484736852        3.8230807580
  H         4.0839096554        7.9747982604        3.7457626576
  H         3.7902532431        9.1260591324        4.7807462499
  O         5.3655526968        4.3843059792        5.9174945082
  H         5.9984848740        4.2071693036        6.6511448474
  H         4.5250792522        4.6394757712        6.3816473167
  O         6.3302072698       11.3440641951        7.8004756661
  H         6.0017764366       11.5863043436        8.6840056139
  H         6.7862000947       10.4845553898        7.9709667566
  O        -0.1746970477       11.9433158420        2.2334508682
  H         0.5721889951       12.4171623736        2.6823927277
  H         0.2310354785       11.0360357204        2.1175677887
  O         9.0156398784        9.9292007906        0.6980578560
  H         9.8999043817        9.6432599364        1.0042087612
  H         8.4262663580        9.9144659792        1.4965862460
  O         8.9590389466        6.9428748183        9.8238144965
  H         9.7970301571        6.7703349163       10.3297651338
  H         8.6629916495        7.8604260991       10.1324786422
  O         1.7628869751        6.5015002260        4.4490814470
  H         2.0835469902        5.6251867261        4.8008548462
  H         2.0411413421        7.1886908946        5.1019207636
  O         1.4320563381        6.0132982416       10.4029830186
  H         0.6630686394        6.1696143804       11.0179854944
  H         1.3358734754        6.7067056649        9.7158671249
  O         6.1949020099        6.5614423036        8.1026819574
  H         6.6350136044        6.4043750654        7.2341837065
  H         5.5039645739        5.8711571609        8.1689474158
  O        10.9669278700        2.9536123361        6.7664505042
  H        10.6741942435        2.0162647312        6.5540181894
  H        11.2924273083        2.9477579309        7.6946166025
  O         4.3260692170        7.0782306688       11.0009225290
  H         5.0246015241        6.8898187412       10.3410565335
  H         3.4588441098        6.9486841698       10.5471464999
  O         8.2089973325        5.4782608288        5.1065538204
  H         8.9310562709        4.9520360330        4.6916029271
  H         7.4482220965        5.0166657063        4.6381171379
  O         4.2262210597        3.8358655780        9.1593117551
  H         4.2016416268        3.1068771290        9.8387995838
  H         4.1416276975        4.6498645064        9.7335789149
  O         1.3533210481        0.8788214367        6.7063142751
  H         1.0368395077        0.5846418040        5.8231928938
  H         0.7997023897        1.6765431224        6.9034182296
  O         7.6293378144        4.6883506269        2.5288597820
  H         8.3647082516        4.1402910792        2.1824522383
  H         7.8586965905        5.6026335814        2.3006599364
  O        10.5312400250        5.0570151102        1.6994886320
  H        10.7536794857        4.1417858249        1.9878339835
  H        10.3136276384        5.5087351307        2.5405185456
  O         1.6783324046        7.1847162387        1.5620400926
  H         0.9903411429        7.1426518835        0.8644010169
  H         2.4065473221        7.6839998310        1.1300088696
  O         9.2910390678        6.9578890964        0.5066157995
  H         8.7194719477        7.6328409752        0.9560334893
  H        10.1926527814        7.2387582317        0.8292913987
  O        10.8816102822        7.8796419871        7.9194814769
  H         9.9028713972        7.6751613511        7.8837483385
  H        10.9824105071        8.3066278557        8.8166010735
  O         9.1221641727       11.4474068602        7.8695162486
  H         9.3761278011       10.5284729997        8.0917382831
  H         9.3981906975       11.9205236700        8.6895118509
  O         6.2971455564        4.3879322898        0.1602294123
  H         5.9051216719        3.5083962835        0.0082795204
  H         5.5748941088        5.0360858352        0.0480134717
  O        10.1408748150       11.0908636289        4.3642494285
  H        10.9260688596       10.9939152462        3.7762604132
  H         9.3676120810       11.0173703392        3.7542063056
  O         9.2614855885        8.4462511164        5.8706304792
  H         8.3154889317        8.6202595624        5.6859136309
  H         9.6988474896        9.3204129925        6.0230759870
  O         7.4142053391       12.0113706437        1.6650199023
  H         7.4002553205       12.1310735303        2.6371210795
  H         8.1784385280       12.5176297502        1.3265569247
  O         5.3175707202       11.9102173315        3.9015561423
  H         4.4704977045       12.1478139591        3.4706153338
  H         5.0710560126       11.2911769703        4.6376860744
     192
 i =        4, E =     -1101.7240879107
  O         3.8963770762        5.9284922431        2.5848986562
  H         3.1559759116        5.3662320633        2.2752566617
  H         4.6672390660        5.7392573910        2.0210844216
  O        11.8462825839       10.9109025411        7.4540328582
  H        11.5845751266        9.9909301784        7.2036447512
  H        11.4069958442       11.4968743989        6.7966019786
  O         2.0478247783       11.0384359683        3.7083866111
  H         1.8796097797       10.0683301251        3.6685553865
  H         2.6809777870       11.1580926798        4.4321804960
  O         1.8235831657        2.2237092932        3.8511420827
  H         2.4629452940        1.6731058748        4.3477791036
  H         1.6561663659        2.9643487396        4.4769684044
  O         8.7760983853        1.8180833079        8.4225790323
  H         8.4836069295        1.3820879439        7.6024636623
  H         8.7505123868        2.7609410024        8.1826674318
  O         8.9416538070        7.9560769173        3.1187568016
  H         9.8736885998        8.2641104651        3.1262809260
  H         8.9648874302        7.1180922859        3.6204321732
  O         2.0963434264        2.0054487299        9.3527826568
  H         2.3497923755        1.2240335059        9.9026181752
  H         1.5604394787        2.5403722918        9.9808214153
  O         7.5518011646       11.4738861513        5.2638712505
  H         7.7575990208       12.4225017392        5.3516095105
  H         8.2038864463       11.0926745364        5.8836838319
  O         1.8448431012        9.4380789459        6.5515981863
  H         1.2643081038       10.0673112496        6.0559975231
  H         1.2520743723        8.6840984482        6.7943965373
  O         3.8532820098       11.7612510015        7.1785151146
  H         2.9722661981       11.6857572891        6.7691861947
  H         4.3744474945       10.9333593243        7.0330251336
  O        11.2328060689        6.0534994184        5.5137331902
  H        10.3654089802        6.2272007125        5.9525281731
  H        11.8694431155        6.2865449402        6.2181225737
  O         2.6792422794        0.2824557155        1.4137183774
  H         3.4284295244        0.5459355469        0.8326242726
  H         1.9584507703        0.0966313313        0.7711097844
  O         5.5337321052        7.7792873584        1.1289906302
  H         4.7180656337        8.0108451782        1.6254345060
  H         6.1903943621        7.6931682425        1.8525827598
  O         5.2339042707       10.6944554225        0.5562171290
  H         4.4924660277       10.6219858272        1.1945995081
  H         5.3223311897        9.7876285258        0.1477300118
  O        11.6815823436        0.8926262524        9.4932981339
  H        11.3158534471        0.8134916197        8.5923769028
  H        11.8059711122       -0.0500781375        9.7358073844
  O         6.9935089979        2.1302514919        3.1736192341
  H         6.6670271286        1.9238183162        2.2757250267
  H         6.4563395603        1.5853676234        3.7795435997
  O         6.7794059167        9.4591328987        3.1195014712
  H         6.0711705226       10.0900511226        2.8724308009
  H         7.2451763852        9.9048700879        3.8558229146
  O         5.3082107642        1.5071162218        5.9136622460
  H         4.9891029717        2.0546451118        6.6527828567
  H         5.5196631263        0.6390951191        6.3387148997
  O         7.8352551079        4.2425746911       10.3078938912
  H         8.6030222101        4.5904470228        9.8158763264
  H         7.3149974274        5.0647911191       10.4505405683
  O         0.9191660432        9.6861328063        0.6192342351
  H         1.2213932495       10.3235947543       -0.0553264012
  H         0.0504799922        9.3988935094        0.2607039170
  O         7.0006503799        8.2640732995       11.1595092095
  H         7.4313580333        8.7986994690       11.8474683083
  H         7.0710513775        7.3598921896       11.5281128807
  O         2.8007342294       10.1120149076        9.4622380917
  H         3.2811794168        9.5556201081        8.8301455288
  H         2.2571076764       10.6645210775        8.8639140082
  O        11.1856461572        3.4469925317        4.0532865220
  H        11.5978872604        3.9398056325        4.7954945713
  H        11.7225328198        2.6527423596        3.9084138321
  O         8.3838860099        2.4688320043        5.5375476493
  H         7.4134571694        2.5466800925        5.6241514496
  H         8.5361421351        2.5419636625        4.5699180595
  O         5.8871258011        6.8032891699        3.9845757684
  H         6.7069093295        7.1798721209        4.3492274839
  H         5.5150186496        6.1373773637        4.6176107205
  O         9.7994036854        1.8792007332        1.3022885912
  H         9.5543665473        1.7122230087        2.2357656458
  H        10.5736127987        1.2974327273        1.1438026182
  O         9.9963887922       10.2037777539       10.3600991273
  H        10.3763139306       10.7455620083       11.0855217596
  H         9.0290789009       10.3396841192       10.4932104976
  O         1.0013146895        4.7016581117        2.1766029018
  H         0.8106538691        3.7559313012        2.1659482824
  H         0.5385244034        5.0573964057        2.9560886370
  O         2.2043107249        3.8073865352        6.5992626084
  H         2.7955661641        3.0868249250        6.9288831262
  H         1.6699248935        3.9357067226        7.4100304126
  O         7.1047726652       11.3902926173       10.7155354903
  H         7.1164259435       12.3551098702       10.6063118997
  H         7.2062960415       11.2559985766       11.6845135367
  O        12.0110223329        8.5395282006        3.4777472455
  H        12.1647028309        8.2311270491        4.4023197339
  H        12.5327342668        7.8597499439        2.9578520612
  O         1.2756195837        2.5187243187       -0.0090568430
  H         1.9704316733        2.4257351358        0.6841915416
  H         0.4721176660        2.1414012179        0.4032916768
  O         5.4496010458        8.9508024910        6.5549360855
  H         5.8875262316        9.4385383994        5.8265566751
  H         5.2531335318        8.0630977321        6.1643292033
  O        11.4773780706        4.7080197211        9.5090225139
  H        12.2182138545        4.7807213343        8.8619281499
  H        10.6613646977        4.7216894984        8.9619002490
  O         3.3177845012        4.6942142324       12.1692256099
  H         3.5855981684        3.7548533181       12.2615739982
  H         2.3365520619        4.6602492302       12.1396550565
  O         2.6589785552        6.7437911740        7.8251574833
  H         2.0059148341        6.2231019948        7.2979395283
  H         3.1797635018        7.2459477461        7.1669166469
  O         3.8236324718       12.3943245714       11.0771039625
  H         4.3460648314       12.3730279552       10.2530080775
  H         3.8038668318       11.4288417948       11.2948394897
  O         4.3346534714        2.7377484894        1.9826558473
  H         4.0804792440        2.0865715355        2.6752931529
  H         4.7822077508        3.4481659135        2.4966443756
  O         0.2048222101        9.2183419166       10.2331893138
  H         1.1905699911        9.1674306841       10.1664096389
  H        -0.0332270553        9.9702775748        9.6474734497
  O         3.8365544763        8.9266110159        3.8279588239
  H         4.1071507866        7.9650344940        3.7361704822
  H         3.7916172324        9.0823482421        4.7963680579
  O         5.3539617399        4.4245890372        5.9320854100
  H         5.9911045962        4.2224198348        6.6541798032
  H         4.5035947578        4.6272479826        6.4009397267
  O         6.3056165967       11.3454624377        7.8469879005
  H         5.9698008182       11.5688172415        8.7210643749
  H         6.7556190592       10.4984528178        7.9874231654
  O        -0.1741092768       11.9552487081        2.2154940738
  H         0.5512479079       12.4084645253        2.6924012800
  H         0.2108113373       11.0524586348        2.0821686313
  O         8.9969142914        9.9401445127        0.7014583698
  H         9.8734647112        9.6348951693        1.0074578045
  H         8.4076821856        9.9460956971        1.4982999973
  O         8.9883997911        6.9304894128        9.8054115994
  H         9.8002276812        6.7721165414       10.3334577382
  H         8.6387485607        7.8132511429       10.1294486701
  O         1.7320478665        6.4968331820        4.4978156078
  H         2.0929392156        5.6335551603        4.8243852297
  H         2.0576821022        7.1960435974        5.1139151050
  O         1.4302870779        6.0387222362       10.3873407816
  H         0.6819510248        6.1723421352       10.9996448658
  H         1.3348034200        6.7338722755        9.7163652725
  O         6.1647159130        6.5617133848        8.0969803063
  H         6.6535917945        6.3807953818        7.2562857474
  H         5.5091726044        5.8343376894        8.1664626250
  O        11.0167103102        2.9676477573        6.8182521797
  H        10.7059031523        2.0659134491        6.5856003279
  H        11.3171461401        2.9165633916        7.7465038747
  O         4.3115813420        7.0968423122       10.9754339190
  H         5.0176777224        6.9575757016       10.3084060114
  H         3.4473063115        6.8940186268       10.5321223723
  O         8.2261623971        5.4926528001        5.1201307524
  H         8.9619983548        4.9512899091        4.7510661321
  H         7.4678945124        5.0651445842        4.6250446896
  O         4.2388514462        3.8829241122        9.1486466753
  H         4.2001211344        3.1275089115        9.7854495986
  H         4.1413382211        4.6631536649        9.7496797503
  O         1.3438778724        0.8445245145        6.6678558505
  H         1.0065432840        0.5927091240        5.7787285692
  H         0.8178789612        1.6484354775        6.9089123625
  O         7.6484172842        4.7137987982        2.5681101291
  H         8.3612438936        4.1730163991        2.1658877819
  H         7.8790467884        5.6166692332        2.2672899941
  O        10.5137165916        5.0336273036        1.7083914697
  H        10.7540427641        4.1328487490        1.9978899081
  H        10.3033295688        5.4874185571        2.5439729263
  O         1.6402306122        7.1996631046        1.5532930685
  H         0.9796754444        7.1297255478        0.8344050594
  H         2.3851825788        7.6875766954        1.1452511105
  O         9.2638476452        6.9966537164        0.4608011959
  H         8.7067728405        7.6533380402        0.9387938796
  H        10.1763329732        7.2064045808        0.7958083783
  O        10.9322110437        7.9092133589        7.9411256256
  H         9.9647597354        7.6911373159        7.8892066524
  H        11.0209868565        8.3038708522        8.8403468939
  O         9.1431683281       11.4331933248        7.8589241579
  H         9.4155328579       10.5263443666        8.1064943731
  H         9.3817167939       11.9357812285        8.6748806287
  O         6.2444528764        4.4213135238        0.1527293169
  H         5.8863591482        3.5240192997       -0.0006051456
  H         5.4992923918        5.0455503585        0.0417751308
  O        10.1716646023       11.0847923162        4.3682728960
  H        10.9386295513       11.0162608259        3.7548683234
  H         9.3815443655       11.0296845636        3.7858319128
  O         9.2381016512        8.4500989003        5.9040217165
  H         8.3075236267        8.6246132260        5.6948648548
  H         9.6822246411        9.3160995955        6.0164778220
  O         7.4550154837       12.0416973751        1.6668672818
  H         7.4009700682       12.1624475054        2.6402636123
  H         8.2232126563       12.5692513358        1.3624167011
  O         5.2889131096       11.9205500606        3.8457686008
  H         4.4284562737       12.1184928918        3.4263835746
  H         5.0775425137       11.3210783220        4.5997892436
     192
 i =        5, E =     -1101.8446411037
  O         3.8819337187        5.8036991442        2.6640022235
  H         3.1035003089        5.3736845075        2.2521010853
  H         4.6331337759        5.7104357738        2.0540065831
  O        12.0057032696       10.7999811914        7.3733501908
  H        11.5712972588        9.8922754594        7.2414247114
  H        11.4409264564       11.3865400681        6.8179827037
  O         1.9347796146       11.0883282572        3.8757438470
  H         1.8919347152       10.1086839998        3.6781933374
  H         2.6821397226       11.1297638436        4.5114329653
  O         1.7433725091        2.1845241733        3.9428780685
  H         2.4132141446        1.6404116950        4.3768677461
  H         1.6850823897        2.9601643086        4.5394945967
  O         8.7384091746        1.7323173814        8.4297270366
  H         8.4240841867        1.3496417623        7.6042813475
  H         8.7043688785        2.6798787822        8.2789286053
  O         9.0822450692        7.8707135976        3.1254812299
  H        10.0058563449        8.1616275788        3.2673159181
  H         8.9829559017        7.0770996265        3.6994841622
  O         2.1329199064        2.0411816165        9.4045699344
  H         2.3247733925        1.1923852193        9.8801195592
  H         1.5547939220        2.4975528787       10.0575505798
  O         7.6759927573       11.4202631084        5.2524390747
  H         7.7399033642       12.4022410618        5.2097942407
  H         8.3339467596       11.1728726692        5.9239603773
  O         1.8817332072        9.3354408601        6.4247600402
  H         1.2354961495       10.0195996889        6.0758499311
  H         1.2285840320        8.6857229966        6.8424883698
  O         3.8377927731       11.8287551550        7.1075658112
  H         2.9189776159       11.7178077085        6.7946389501
  H         4.3166309438       10.9704832132        7.0623653067
  O        11.2661599852        6.0508166600        5.5038326328
  H        10.3744959282        6.2563093239        5.8525217972
  H        11.8564483233        6.3297078400        6.2238513246
  O         2.8373965293        0.2877822486        1.3586919766
  H         3.5112735074        0.5553615848        0.6737476633
  H         2.0222102260        0.1233332575        0.8121861360
  O         5.6014399562        7.7608314954        1.2230610075
  H         4.7090006208        7.8696407091        1.6643415056
  H         6.2060666261        7.8072515112        2.0233674019
  O         5.0495850690       10.5842731515        0.4705741630
  H         4.3937385397       10.5100250568        1.2228779396
  H         5.2322569927        9.5834257191        0.2475528944
  O        11.5962283048        0.8641053095        9.5500366783
  H        11.2203157472        0.8226136495        8.6566150945
  H        11.8260592693       -0.0763528161        9.7213930052
  O         7.0389527733        1.9596356465        3.2714707674
  H         6.7118951402        1.8817856723        2.3580817028
  H         6.3926037979        1.4413712535        3.8000679474
  O         6.7844604516        9.5333302086        3.1173100620
  H         6.0473964090       10.1323454237        2.8582519156
  H         7.2842663991       10.0684187562        3.7805228310
  O         5.4316929059        1.5820918799        5.9347023607
  H         5.0395887415        2.0919865810        6.6617774769
  H         5.4766693709        0.6680577188        6.3297600885
  O         7.8768092912        4.1502033064       10.1174932233
  H         8.6672680043        4.6260925453        9.7446070221
  H         7.3577275628        4.9341008817       10.4452640930
  O         0.8711020904        9.8414907258        0.6578494214
  H         1.2339568037       10.3730034978       -0.0827049352
  H         0.0897992322        9.4286427528        0.2027458629
  O         7.1754534124        8.4078037410       11.0815813373
  H         7.5434793179        8.8875507646       11.8399410603
  H         7.1080247929        7.4881066406       11.4164040315
  O         2.7369568653       10.0284131528        9.5353321789
  H         3.2979254580        9.4896740109        8.9663164323
  H         2.3049076253       10.6568143414        8.9255049663
  O        11.1620139948        3.3583855721        3.9323163559
  H        11.4080409531        3.9407348458        4.6920044150
  H        11.8057329407        2.6206133916        3.8856627046
  O         8.2639101540        2.2965089954        5.5314932383
  H         7.2965983007        2.4378073925        5.5659876779
  H         8.4401897876        2.4790620336        4.5868751264
  O         5.8568966979        6.8960346141        4.0766510342
  H         6.7307497717        7.1792548446        4.4067323247
  H         5.6088244269        6.0613811276        4.6040719893
  O         9.8178420670        1.8348948006        1.3520267119
  H         9.5487639645        1.7013316067        2.2821343051
  H        10.5574121917        1.2031523287        1.2182761618
  O         9.8894634022       10.2513825505       10.3253164168
  H        10.3184180057       10.6923503594       11.0862148738
  H         8.9371258283       10.4200812441       10.5097415534
  O         1.1968239183        4.5863340337        2.2149523428
  H         0.9096406700        3.6682149514        2.2207884286
  H         0.6621741490        5.0536607372        2.8892047313
  O         2.1973598431        3.8275457686        6.6199401265
  H         2.7905351413        3.1009356782        6.8983013715
  H         1.6970822087        3.9582483536        7.4479609988
  O         7.1981677354       11.4221052104       10.7340848704
  H         7.2696758260       12.3749085202       10.6157473615
  H         7.1203675410       11.2825228249       11.7142962461
  O        12.0083770036        8.5304772377        3.4191772466
  H        11.9939416696        8.1539950204        4.3451113400
  H        12.7503993232        7.9893910432        2.8958399661
  O         1.3076499750        2.5074164490       -0.0029947089
  H         1.9530774793        2.3734688453        0.7320742878
  H         0.4568840541        2.1636423166        0.3442387421
  O         5.3996749974        9.0274174183        6.4341103138
  H         5.8760019455        9.4823130860        5.7097600396
  H         5.3671572159        8.0659682586        6.1180241975
  O        11.3583785385        4.6297591806        9.5019546487
  H        12.1483041550        4.8545830980        8.9260136574
  H        10.5982207278        4.7481293258        8.8643160020
  O         3.3761312150        4.5817095955       12.1315295794
  H         3.5393814501        3.6160452986       12.4077159573
  H         2.3906952780        4.6402365019       12.1570853948
  O         2.6390595128        6.7914158304        7.8281632399
  H         2.1149830880        6.1704119507        7.2412318767
  H         3.2010262861        7.3023944522        7.2124486097
  O         3.7190094565       12.4788478858       10.9680443206
  H         4.2925263059       12.4431473611       10.1888780761
  H         3.8097902008       11.5425201244       11.3157629700
  O         4.3679797240        2.7110906544        1.9054837124
  H         3.9507767643        2.1598468717        2.6438448586
  H         4.8130944455        3.4498381145        2.3673842000
  O         0.2668412044        9.1831596219       10.2015474413
  H         1.2546147398        9.2572637834       10.0598893873
  H        -0.0845137391        9.8738624118        9.5824837291
  O         3.7102366774        8.8491952133        3.8439125756
  H         4.1641365439        7.9339498931        3.7147418146
  H         3.7968467991        8.9431916789        4.8376261724
  O         5.3075522352        4.5415618969        5.9755595583
  H         5.9586084394        4.2778360677        6.6614398569
  H         4.4443096178        4.5947423781        6.4693619599
  O         6.1746088794       11.3474177624        7.9684854771
  H         5.8768821081       11.5088018094        8.8707500883
  H         6.7048906082       10.5453513907        8.0418824341
  O        -0.2061560629       11.9952427227        2.1828140088
  H         0.5022417908       12.3800877781        2.7175799012
  H         0.1594351389       11.1078124820        1.9416189794
  O         8.9321459163        9.9907974301        0.7137309886
  H         9.7759912189        9.6003944373        1.0258341734
  H         8.3512256451       10.0550800719        1.5101447821
  O         9.0929313371        6.8935777176        9.6996841276
  H         9.8083886705        6.7694183509       10.3740047790
  H         8.5494751328        7.6630886614       10.1277919376
  O         1.6248861366        6.4831006989        4.6623371413
  H         2.1333480077        5.6593239592        4.9024583410
  H         2.1113500915        7.2253765464        5.1492779776
  O         1.4796136745        6.1398037921       10.3536156032
  H         0.6977827254        6.1526832058       10.9298793222
  H         1.3158934849        6.8323491473        9.6964256100
  O         6.0672739578        6.5569355255        8.0798325664
  H         6.7093493148        6.3086006167        7.3331394322
  H         5.5275296489        5.7158929900        8.1648278747
  O        11.2484587366        3.0061150926        6.9948336004
  H        10.7360573801        2.1998322940        6.6460757203
  H        11.4131778178        2.8459248366        7.9582447300
  O         4.2639663814        7.1437045233       10.9008257245
  H         4.9820262687        7.1802794762       10.1979858325
  H         3.4271328399        6.7369893009       10.4832700864
  O         8.2873721742        5.5593849827        5.2035587745
  H         9.0233647017        4.9398286279        4.9430703855
  H         7.5808157669        5.2087188213        4.5683990645
  O         4.3066350188        4.0468563683        9.0969974019
  H         4.1778627684        3.1925830668        9.6032637918
  H         4.1262346347        4.7172768460        9.8145537166
  O         1.3219840326        0.7427961932        6.5336489514
  H         0.9046645510        0.6192821843        5.6372192030
  H         0.8735003968        1.5513454933        6.9185993669
  O         7.7389251565        4.8172305239        2.5728979093
  H         8.3476755477        4.2299584533        2.1470849188
  H         7.9056054394        5.6827369984        2.2154306557
  O        10.4388054487        4.9649195042        1.7218322959
  H        10.7707405614        4.1041379504        2.0335341580
  H        10.2772273368        5.4239746855        2.5606915578
  O         1.5051810877        7.2411222226        1.5432987087
  H         0.9535448941        7.0919223180        0.7306484718
  H         2.2926059224        7.6974727519        1.1941524839
  O         9.1741653079        7.0849322638        0.2850698743
  H         8.7116982545        7.7215453093        0.9000666952
  H        10.0860574899        7.1118805208        0.6986239765
  O        11.1049727840        8.0307410804        7.9821973158
  H        10.1666534801        7.7375316891        7.9078728905
  H        11.1519343905        8.2778263820        8.9407584738
  O         9.2147217947       11.3858668854        7.8051430256
  H         9.5469387844       10.5230646194        8.1633476427
  H         9.3227024045       11.9754770556        8.6138432291
  O         6.0876474140        4.5425242408        0.1310974730
  H         5.8216423692        3.6047948570       -0.0297822096
  H         5.2492923918        5.0625947365        0.0087588486
  O        10.2768893694       11.0691024990        4.3868619080
  H        10.9825897052       11.0868523733        3.6863822894
  H         9.4305568583       11.0673441259        3.8894799614
  O         9.1630122561        8.4463715682        6.0550871531
  H         8.2703949906        8.6373490681        5.7034572160
  H         9.6427962227        9.3190781893        5.9766300328
  O         7.5847865561       12.1290059800        1.6687569153
  H         7.4085644507       12.2701392689        2.6364738489
  H         8.3597811777       12.7322750825        1.4806303715
  O         5.1947566924       11.9567022738        3.6591141624
  H         4.2883546110       12.0222368235        3.2716982643
  H         5.0975870406       11.4238723632        4.4840169645
     192
 i =        6, E =     -1101.8856562898
  O         3.8752012096        5.7311922204        2.7348081882
  H         3.0701333374        5.3803252115        2.2291200269
  H         4.6005481711        5.6941380848        2.0571483235
  O        12.0247313946       10.7145407872        7.3368306730
  H        11.6119628750        9.8395556998        7.2689005143
  H        11.4761677222       11.3158246773        6.8385958773
  O         1.9084882751       11.0980686370        3.9653624670
  H         1.8763180157       10.1587643370        3.6997080986
  H         2.6712275086       11.1197473280        4.5632215855
  O         1.7024666860        2.1663627914        3.9963300274
  H         2.3818098329        1.6098303518        4.3920964579
  H         1.6997171885        2.9539702617        4.5746320366
  O         8.7299813224        1.6652032900        8.4229775619
  H         8.3826318981        1.3421808037        7.5782476981
  H         8.6705656047        2.6308837043        8.3589369479
  O         9.1594706605        7.8232413433        3.1283011773
  H        10.0902019388        8.0979502440        3.3627683123
  H         9.0036189816        7.0645233334        3.7568412624
  O         2.1303532348        2.0435355528        9.4349471576
  H         2.3279433060        1.1934397904        9.8644517616
  H         1.5648958084        2.4760763553       10.0934597627
  O         7.7119314585       11.3871232449        5.2216308723
  H         7.7293262946       12.3739727523        5.1445610004
  H         8.3844042450       11.2610487111        5.9901822617
  O         1.8289965509        9.3019991005        6.4256775954
  H         1.2571295793        9.9754920086        6.0759725590
  H         1.2725557843        8.6696414597        6.8313792039
  O         3.8008388580       11.8541734189        7.0745006609
  H         2.8732975718       11.7356638160        6.8077846110
  H         4.2684206371       11.0023195890        7.0803256105
  O        11.2654137318        6.0556112389        5.4967196293
  H        10.3757214364        6.2886346445        5.8050540662
  H        11.8471432689        6.3522062469        6.2075182252
  O         2.9226837755        0.2921188444        1.3255984036
  H         3.5545431174        0.5508003968        0.6055720495
  H         2.0837223241        0.1334995023        0.8333900394
  O         5.6307848650        7.7491673140        1.2652915024
  H         4.7317815815        7.7924032044        1.6831149928
  H         6.2054354241        7.8641452940        2.0818721868
  O         4.9814477749       10.4540819143        0.4847434018
  H         4.3295262583       10.4606169005        1.2083599238
  H         5.1552218328        9.5241390383        0.2541370998
  O        11.5746056138        0.8334101240        9.5705442988
  H        11.1488681152        0.8220324832        8.7025310477
  H        11.8282622044       -0.0877714163        9.7123443434
  O         7.0557320338        1.8740903003        3.3092114698
  H         6.7167411303        1.8690130076        2.3902046435
  H         6.3466298728        1.3786974507        3.7975957225
  O         6.8058734174        9.5884405789        3.1229175984
  H         6.0512355694       10.1544046856        2.8479827419
  H         7.3012321005       10.1602163050        3.7496047910
  O         5.4925675938        1.6037433119        5.9547196931
  H         5.0676237807        2.1155275329        6.6567689669
  H         5.4700444979        0.6968687381        6.3316422831
  O         7.9202486090        4.1332024764       10.0437050569
  H         8.6845709675        4.6304878050        9.7057331181
  H         7.3601368823        4.8359257232       10.4226750906
  O         0.8416953325        9.9178701889        0.6368993422
  H         1.2499210631       10.4084812616       -0.0965717294
  H         0.1103242103        9.4595527052        0.1876604138
  O         7.2600502928        8.4860168424       11.0280978887
  H         7.6054661141        8.9284682125       11.8364809507
  H         7.1096956228        7.5681728217       11.3728332047
  O         2.6909333554        9.9737652654        9.5787882306
  H         3.3296667598        9.4511345102        9.0378664603
  H         2.3486096561       10.6651621065        8.9339760464
  O        11.1295100168        3.3069917871        3.8906827194
  H        11.3216371358        3.9152490994        4.6274574530
  H        11.8540610532        2.6155364018        3.9082560696
  O         8.2101259450        2.2149742850        5.5447717894
  H         7.2475831248        2.3628700334        5.5627152114
  H         8.3951705401        2.4320056270        4.6185088046
  O         5.8756464858        6.8717758829        4.1483282274
  H         6.7340159471        7.1759896159        4.4373932032
  H         5.6404692650        6.0856278474        4.6150909649
  O         9.8226986550        1.7859163239        1.3847700635
  H         9.5673775463        1.7093176273        2.3200922269
  H        10.5473446826        1.1420863464        1.2756801946
  O         9.8347114726       10.2680500490       10.3211040962
  H        10.2807480531       10.6654108052       11.0799625511
  H         8.8949665656       10.4688488531       10.5071088739
  O         1.3263644466        4.5360040351        2.2278727321
  H         0.9369954603        3.6228798231        2.2664295482
  H         0.7284521341        5.0529270328        2.8404602098
  O         2.1969534711        3.8258809110        6.6340787286
  H         2.7916900705        3.1045484633        6.8837492304
  H         1.7097450356        3.9677151939        7.4613469937
  O         7.2241233972       11.4362222089       10.7566568840
  H         7.3758470134       12.3871364199       10.6366263265
  H         7.0754792530       11.3231536956       11.7223601710
  O        12.0472523303        8.5471979693        3.3792195937
  H        11.9588069008        8.0990955830        4.2699525459
  H        12.7782576220        8.0422634759        2.8878740374
  O         1.3181497366        2.4928448030        0.0027914883
  H         1.9328765025        2.3303239370        0.7499732515
  H         0.4476398689        2.1774500436        0.3126987575
  O         5.4169533564        9.0365016841        6.3638087770
  H         5.8672319230        9.5004661095        5.6432293259
  H         5.4004321265        8.1071387013        6.0855514318
  O        11.3124041577        4.6430735020        9.4759478624
  H        12.0951912774        4.8696711744        8.9550774000
  H        10.5793088410        4.7593130197        8.8481126597
  O         3.3791628876        4.4964182931       12.1478900781
  H         3.5431534348        3.5750645749       12.4548867331
  H         2.4071290419        4.6177151782       12.1614067165
  O         2.6470015293        6.7838112601        7.8147163226
  H         2.1740952429        6.1813185083        7.2193371991
  H         3.2132806442        7.3352387056        7.2463153927
  O         3.6791806297       12.5101759890       10.9167928410
  H         4.2654788974       12.4911222861       10.1549027694
  H         3.8042186761       11.6113676516       11.3186469330
  O         4.3620002785        2.7040575048        1.8754226122
  H         3.9112847612        2.1924526455        2.5913232413
  H         4.8206785906        3.4530666770        2.2986509601
  O         0.2927298508        9.1785859939       10.2032679799
  H         1.2679374273        9.3057623582        9.9914545991
  H        -0.1097820216        9.8096320441        9.5529248179
  O         3.7132753510        8.7868638012        3.8655991699
  H         4.1314453211        7.9173435109        3.7177606016
  H         3.7761276752        8.8980496425        4.8292774240
  O         5.2549044667        4.5730304134        6.0096852890
  H         5.9346740641        4.3171481268        6.6507388280
  H         4.4344636761        4.6116042740        6.5000772418
  O         6.1082837166       11.3512152871        8.0173696356
  H         5.8575129586       11.4605343007        8.9682930920
  H         6.7164402850       10.5774758159        8.0701169708
  O        -0.2300111519       12.0312706114        2.1579997172
  H         0.4795497312       12.3483962682        2.7470898048
  H         0.1277569112       11.1570735936        1.8425538863
  O         8.8909437162        9.9990996131        0.7195567691
  H         9.7068304345        9.5777077196        1.0441440893
  H         8.3291861738       10.1380041744        1.5151065136
  O         9.1091025939        6.8711087213        9.7178880339
  H         9.7886595921        6.7636895051       10.3690104270
  H         8.5571856012        7.5707844971       10.0623209061
  O         1.6597017274        6.4800729716        4.7537585299
  H         2.1255665673        5.6859524073        4.9493003967
  H         2.0826210046        7.2346639638        5.1596552395
  O         1.5016585671        6.1930282297       10.3277394708
  H         0.6911332461        6.1339747994       10.8796024674
  H         1.2892634736        6.8924392486        9.6793349610
  O         6.0526516386        6.5037349938        8.0766969574
  H         6.7064447345        6.2989256443        7.3739814368
  H         5.5304081360        5.6838819909        8.1864082272
  O        11.3284148909        3.0168054743        7.0712041792
  H        10.8129539703        2.2813905995        6.7347930752
  H        11.4343560949        2.8055850042        8.0329672661
  O         4.2404880406        7.1413392338       10.8675605348
  H         4.9155480085        7.2691119825       10.1327413083
  H         3.4650520374        6.7318116771       10.4551465876
  O         8.3137283691        5.5917096881        5.2229669928
  H         9.0508619483        4.9384141366        5.0543237527
  H         7.6666015684        5.2553364519        4.5604890228
  O         4.2994273556        4.1325886590        9.0764277431
  H         4.1777961462        3.2607336320        9.5024024895
  H         4.1377966108        4.7362370262        9.8200476540
  O         1.3116858931        0.7127273902        6.4582060846
  H         0.8610220054        0.6226704459        5.5937817553
  H         0.8827800198        1.4785481111        6.8877282442
  O         7.7723817026        4.8647982272        2.7214462333
  H         8.3214686834        4.2530458820        2.0607540819
  H         7.9092383089        5.7228130749        2.0988551273
  O        10.4266463079        4.9361430170        1.7305810117
  H        10.7860775655        4.0941144232        2.0431971718
  H        10.2756269060        5.4058083403        2.5617808068
  O         1.4375347300        7.2338277289        1.5148111326
  H         0.9289705121        7.0811694642        0.7065373516
  H         2.2266855306        7.7161807022        1.2347272461
  O         9.1481991384        7.1024172777        0.2777736331
  H         8.7131237755        7.7308525250        0.8328163588
  H        10.0306743182        7.0671753457        0.6148642819
  O        11.2016356384        8.0869873986        8.0121656771
  H        10.2855244616        7.7767172058        7.9173866864
  H        11.2547063327        8.2665891096        8.9713861830
  O         9.2317053911       11.3536021725        7.7823086219
  H         9.6113181714       10.5313066272        8.1894285282
  H         9.2966685039       11.9794176432        8.5521258868
  O         6.0110878793        4.6193333069        0.1258679086
  H         5.7893759902        3.6792005007       -0.0508577751
  H         5.1329636605        5.0701567031       -0.0314492099
  O        10.3464748330       11.0451631082        4.3943940949
  H        11.0142856761       11.1271304599        3.6609692269
  H         9.4776414644       11.0989546167        3.9474195313
  O         9.1261251872        8.4650267123        6.1026638989
  H         8.2566820960        8.6423246107        5.7085213080
  H         9.6114987954        9.3045891357        5.9643238240
  O         7.6473467910       12.1779693519        1.6682667734
  H         7.4195256855       12.3387839420        2.6123665782
  H         8.4113241488       12.7944005283        1.5167022181
  O         5.1317092504       11.9903889888        3.5854363194
  H         4.2348632073       11.9643102034        3.1748009919
  H         5.0833854364       11.4839869513        4.4045210993
     192
 i =        7, E =     -1101.9249302628
  O         3.8589291071        5.7271474038        2.7194183097
  H         3.0912488729        5.3716404030        2.2569180557
  H         4.5819481358        5.6774530315        2.0692002212
  O        12.0815894760       10.6812218029        7.3167219619
  H        11.6108188659        9.8059399557        7.2936742452
  H        11.4520588601       11.2969862613        6.8531443778
  O         1.8883457967       11.1137935186        4.0049483481
  H         1.8718743661       10.1806318325        3.7042608633
  H         2.6725439970       11.1147031069        4.5866554594
  O         1.6755410592        2.1573400266        4.0107497647
  H         2.3718397052        1.5937372769        4.3926922545
  H         1.7110428000        2.9528407794        4.5911752904
  O         8.7352177978        1.6235599280        8.4214095663
  H         8.3646249514        1.3558398940        7.5487711940
  H         8.6485265044        2.6024259522        8.4090486363
  O         9.1894857603        7.8063540893        3.1533447995
  H        10.1085778648        8.0717774360        3.3797769651
  H         9.0292000859        7.0602992290        3.7691945707
  O         2.1345876792        2.0517684516        9.4412251183
  H         2.3327661002        1.1955040174        9.8520239023
  H         1.5690277389        2.4692036729       10.1091890816
  O         7.7100561568       11.3975208463        5.2268253087
  H         7.7466195951       12.3642619187        5.1385093170
  H         8.3712675815       11.2880045467        5.9984457409
  O         1.8751195880        9.2530759679        6.3522468793
  H         1.2402975030        9.9869970667        6.0959006477
  H         1.2620898506        8.6586597285        6.8946322899
  O         3.7791148574       11.8736682949        7.0473344876
  H         2.8402180351       11.7462203775        6.8098318329
  H         4.2451202011       11.0080570110        7.1004908302
  O        11.2567870753        6.0421678823        5.4910083484
  H        10.3681606346        6.3246674593        5.7876371025
  H        11.8443973765        6.3648025236        6.1944924787
  O         2.9490866426        0.2931710042        1.3132489857
  H         3.5704895581        0.5464845681        0.6015700915
  H         2.1174690710        0.1325072376        0.8392445770
  O         5.6315217944        7.7476112137        1.2888997315
  H         4.7463013807        7.7708291474        1.6942638573
  H         6.2106853840        7.8688902340        2.0700516523
  O         4.9479855753       10.4222190182        0.4743689643
  H         4.3062546580       10.4370001786        1.1909385672
  H         5.1280631214        9.5036493062        0.2655543795
  O        11.5670000456        0.8236334519        9.5851820881
  H        11.1074293796        0.8156835471        8.7305026252
  H        11.8354130279       -0.1000166897        9.6958834659
  O         7.0316976508        1.8564961226        3.3036495462
  H         6.7035764834        1.8648068318        2.3893726042
  H         6.3330141713        1.3715830888        3.7883842756
  O         6.8190925954        9.6135206917        3.1330264836
  H         6.0631535342       10.1635702014        2.8383937898
  H         7.3064956487       10.1901741334        3.7493233587
  O         5.5079696889        1.5991172614        5.9707106435
  H         5.0716544169        2.1334234163        6.6485316389
  H         5.4718228614        0.7030312049        6.3369547663
  O         7.9325966367        4.1170684078       10.0186092141
  H         8.6828796723        4.6504498392        9.7024734619
  H         7.3598042700        4.7887505475       10.4167559417
  O         0.8272585336        9.9584913234        0.6350723917
  H         1.2635038539       10.4196832637       -0.1125225453
  H         0.1195008440        9.4648740940        0.1735576949
  O         7.2582577822        8.5094699090       11.0187607322
  H         7.6307935772        8.9345151355       11.8142736719
  H         7.1085896831        7.6099858234       11.3656097647
  O         2.7146166222        9.9915455346        9.5817759138
  H         3.3294382995        9.4437165194        9.0631610288
  H         2.3760061321       10.6390953630        8.9356830399
  O        11.1288990858        3.2777412755        3.9011518528
  H        11.3075717663        3.9032328511        4.6166765810
  H        11.8546680076        2.6140519729        3.9130966520
  O         8.1999425302        2.1876428648        5.5648105625
  H         7.2361333751        2.3261334335        5.5904310884
  H         8.3980145412        2.4168492819        4.6407852433
  O         5.8402799424        6.9305512068        4.1908943914
  H         6.7635415604        7.1709406326        4.4510198409
  H         5.6629937039        6.0283907542        4.6229540406
  O         9.8209092661        1.7528790175        1.3988979390
  H         9.5927173934        1.7276497340        2.3466695627
  H        10.5470740283        1.1116115229        1.3087079063
  O         9.8205396332       10.2741301805       10.3131650189
  H        10.2714006033       10.6487687560       11.0834776255
  H         8.8810031680       10.4869533835       10.5036814738
  O         1.3274417340        4.5275941670        2.2245440784
  H         0.9663221739        3.6245712822        2.2894383821
  H         0.7757424210        5.0406963028        2.8252665073
  O         2.2023861280        3.8306575296        6.6356108364
  H         2.7886963160        3.0988176471        6.8802078384
  H         1.7140154309        3.9613060669        7.4656984007
  O         7.2203542436       11.4420004641       10.7677011919
  H         7.4267918422       12.3951340182       10.6534607644
  H         7.0578985271       11.3521507919       11.7205494170
  O        12.0746130232        8.5596149939        3.3700644628
  H        12.0099775108        8.0832944106        4.2114085710
  H        12.7225671358        8.0401033087        2.9029419006
  O         1.3149309500        2.4741715531        0.0028546352
  H         1.9200781592        2.3074187797        0.7501060744
  H         0.4381028084        2.1808397932        0.3034425632
  O         5.4218205159        9.0423702547        6.3386206490
  H         5.8699949933        9.5036119212        5.6139618975
  H         5.4197068988        8.1215293371        6.0758764656
  O        11.2994948645        4.6546568106        9.4646182795
  H        12.0852070182        4.8838635797        8.9696574860
  H        10.5750879142        4.7694581632        8.8470841735
  O         3.3649749121        4.4704708762       12.1520256787
  H         3.5441069536        3.5824427963       12.4666346308
  H         2.4074402608        4.5915458117       12.1637564187
  O         2.6499023685        6.7891858394        7.8166954958
  H         2.2074167537        6.1892932845        7.2060239189
  H         3.2214003626        7.3442512907        7.2604098353
  O         3.6667681442       12.5134801746       10.9116700408
  H         4.2678369234       12.5051880220       10.1521200944
  H         3.8040511466       11.6323741902       11.3019112501
  O         4.3528259422        2.7014915280        1.8586465766
  H         3.9208836614        2.2072169383        2.5584047084
  H         4.8076175376        3.4511095243        2.2802932318
  O         0.2903991495        9.1871498128       10.2031673167
  H         1.2557669368        9.3062377512        9.9817404605
  H        -0.1234566683        9.7946789241        9.5502379084
  O         3.7132500106        8.7595031701        3.8764653700
  H         4.1122348107        7.9081335758        3.7153464896
  H         3.7650757349        8.8996894350        4.8225242156
  O         5.2399520347        4.5981608569        6.0066842084
  H         5.9241093182        4.3286019913        6.6379547105
  H         4.4245749838        4.6052790925        6.5223583475
  O         6.1057307318       11.3510076192        8.0427873348
  H         5.8650889859       11.4399771246        9.0018617677
  H         6.7254726380       10.5873719476        8.0833399483
  O        -0.2422867164       12.0523593214        2.1502456284
  H         0.4768287252       12.3304385333        2.7654539829
  H         0.1142533240       11.1852622988        1.7939758812
  O         8.8761440560        9.9826232842        0.7186380116
  H         9.6780636324        9.5642486379        1.0583242033
  H         8.3226967608       10.1829551757        1.5130477996
  O         9.1572953893        6.8683932518        9.6275126325
  H         9.7871529174        6.7542071839       10.4206960153
  H         8.5235372278        7.5377297075       10.0600419410
  O         1.5781760506        6.4732176245        4.8074226489
  H         2.1864619195        5.6809662022        4.9540713081
  H         2.0977702588        7.2603707334        5.1477305350
  O         1.4917646472        6.2027599607       10.3130058066
  H         0.6880184968        6.1316761133       10.8584363935
  H         1.2786056333        6.9127599361        9.6765025321
  O         6.0557277347        6.4805661798        8.0825831469
  H         6.6958830490        6.3069342646        7.3953665520
  H         5.5333205375        5.6830320035        8.2081651624
  O        11.3792221216        3.0140134546        7.0910706294
  H        10.8095987898        2.3003331616        6.7705959868
  H        11.4431313992        2.8033995083        8.0584132294
  O         4.2495050720        7.1829399094       10.8394443512
  H         4.8725281951        7.2572371502       10.1192675645
  H         3.4838344070        6.7410014436       10.4474670755
  O         8.3250913162        5.5780370995        5.2507461410
  H         9.0554758432        4.9511035550        5.0924742789
  H         7.7065521390        5.2615357846        4.5484222440
  O         4.3033730861        4.1643758515        9.0597586958
  H         4.1688643027        3.2924989103        9.4600089951
  H         4.1345978901        4.7400934470        9.8273303794
  O         1.3021211823        0.7030245061        6.4333241251
  H         0.8489658903        0.6146041328        5.5888743235
  H         0.8816338318        1.4504520430        6.8725913019
  O         7.7505866890        4.8739220565        2.6081660238
  H         8.3178646027        4.2943106598        2.1031012261
  H         7.9067902226        5.7054157027        2.1360673064
  O        10.4294087945        4.9300747932        1.7266140529
  H        10.8026001679        4.0900490154        2.0432683697
  H        10.2797045225        5.4145387570        2.5540730097
  O         1.4103704645        7.2278182556        1.5115995353
  H         0.9237718023        7.0761954487        0.6990069341
  H         2.1987580299        7.7254492814        1.2537880412
  O         9.1257446001        7.1220272977        0.2315163085
  H         8.7125596317        7.7462943617        0.8432434293
  H        10.0348572790        6.9879097177        0.6145058672
  O        11.2310050381        8.1098529716        8.0147383389
  H        10.3185983911        7.7844740993        7.9152813774
  H        11.3100650564        8.2542208345        8.9782360467
  O         9.2298179657       11.3405009569        7.7790136936
  H         9.6201696338       10.5382177996        8.1874651876
  H         9.2911798241       11.9751101073        8.5169289596
  O         5.9849914804        4.6470400315        0.1220067959
  H         5.7858614581        3.7105747940       -0.0608378810
  H         5.1215635604        5.0867768541       -0.0564921908
  O        10.3791907376       11.0413772222        4.3927358724
  H        11.0338574958       11.1322117431        3.6642481999
  H         9.5018711082       11.1138186319        3.9683060783
  O         9.1192059570        8.4726646299        6.1282805958
  H         8.2551531274        8.6426161630        5.7050152492
  H         9.6046403954        9.3035034380        5.9532999047
  O         7.6665091757       12.1970881090        1.6681879830
  H         7.4255318538       12.3694066468        2.5942982943
  H         8.4153459285       12.7959351080        1.4976575741
  O         5.0983889402       11.9964331015        3.5542067061
  H         4.2205923445       11.9522646588        3.1302681228
  H         5.0674817204       11.5102233726        4.3895912544
     192
 i =        8, E =     -1101.9434542967
  O         3.8702500555        5.7083654326        2.7334525229
  H         3.0765747849        5.3800798030        2.2570026541
  H         4.5884645145        5.6684738909        2.0752503543
  O        12.0842929064       10.6631787278        7.3111490329
  H        11.6156460527        9.7875926032        7.3210348684
  H        11.4664613498       11.2714251759        6.8533073539
  O         1.8794374172       11.1238897122        4.0388956501
  H         1.8625613405       10.1943300952        3.6977109106
  H         2.6702573007       11.1233654542        4.6100227622
  O         1.6706677134        2.1653214365        4.0161630622
  H         2.3543646443        1.5767309005        4.3891610819
  H         1.7121533513        2.9451053059        4.6035590792
  O         8.7502661295        1.5933076638        8.4106754793
  H         8.3534423730        1.3662655522        7.5300850759
  H         8.6196377084        2.5766930575        8.4594200482
  O         9.2216839721        7.7863204642        3.1728319297
  H        10.1216511997        8.0670475090        3.3757552567
  H         9.0409062027        7.0499620275        3.7853577972
  O         2.1546524509        2.0776413633        9.4391668341
  H         2.3319448276        1.1915094674        9.8333385783
  H         1.5676014056        2.4644323049       10.1269118870
  O         7.7267283484       11.4307937452        5.2867606959
  H         7.7497408371       12.3974437413        5.1232135833
  H         8.3443746433       11.2552098923        5.9734591582
  O         1.8655875509        9.2404602465        6.3647584801
  H         1.2457402060        9.9668195279        6.1055952813
  H         1.2887252309        8.6467166619        6.8908759996
  O         3.7571252545       11.8834045698        7.0294911031
  H         2.8140544142       11.7579528109        6.8087754754
  H         4.2259264652       11.0168485230        7.1112600380
  O        11.2395928189        6.0337523258        5.4855766840
  H        10.3569804654        6.3626054877        5.7797602126
  H        11.8457895805        6.3710621780        6.1726934055
  O         2.9756719122        0.2847067523        1.3094275488
  H         3.5846160500        0.5463100455        0.5961976231
  H         2.1317833814        0.1296460720        0.8556112953
  O         5.6354045909        7.7447801027        1.2984580267
  H         4.7535378765        7.7405337766        1.6987229997
  H         6.2153548518        7.8817150730        2.0628026555
  O         4.8859653602       10.4559293628        0.4023749920
  H         4.2967614454       10.4136345811        1.1903038461
  H         5.1339654376        9.4511516179        0.3134432067
  O        11.5637498853        0.8198674644        9.5969298226
  H        11.0638897946        0.8106497618        8.7583649033
  H        11.8513560003       -0.1146177434        9.6735674386
  O         7.0078300699        1.8498768631        3.2944916389
  H         6.6837288464        1.8731018400        2.3800928093
  H         6.3081980390        1.3760962352        3.7780333510
  O         6.8262840146        9.6221871994        3.1463486778
  H         6.0815305941       10.1711561441        2.8302785221
  H         7.3106726946       10.2179974643        3.7507148425
  O         5.5431985257        1.6092624260        5.9805410298
  H         5.0663407432        2.1511503244        6.6434558042
  H         5.4466782882        0.6848723681        6.3499902713
  O         7.9306752778        4.0831572007        9.9738562320
  H         8.6888206039        4.6916477240        9.7052708784
  H         7.3538769070        4.7521828484       10.4388975145
  O         0.8206521772        9.9913997347        0.6348404445
  H         1.2721316004       10.4288245974       -0.1247407071
  H         0.1308888954        9.4649194658        0.1566390957
  O         7.2569196761        8.5214771391       11.0190548691
  H         7.6560037077        8.9520191425       11.7830740468
  H         7.0817073710        7.6232517085       11.3610925845
  O         2.7386986499       10.0055218337        9.5771046676
  H         3.3359976500        9.4297525260        9.0865292930
  H         2.4078088856       10.6331442720        8.9273950391
  O        11.1430533007        3.2490120109        3.9043387423
  H        11.2897351891        3.9057794470        4.6302554819
  H        11.8578530123        2.6007035958        3.9178754686
  O         8.2029558660        2.1673282903        5.5915776194
  H         7.2325265071        2.2943175153        5.6218657459
  H         8.4086782483        2.4070886550        4.6651405579
  O         5.8610434135        6.8977276567        4.2274336822
  H         6.7601822459        7.1779909304        4.4594549948
  H         5.6574988263        6.0454197485        4.6387371386
  O         9.8193757460        1.7236935983        1.4100003369
  H         9.6234245559        1.7506409204        2.3721321746
  H        10.5514143348        1.0822252858        1.3428306648
  O         9.8148124042       10.2852137564       10.2968682190
  H        10.2700880758       10.6310110324       11.0940941898
  H         8.8705605810       10.4968560684       10.5000671333
  O         1.3281737127        4.5062147166        2.2296146813
  H         1.0040382894        3.6136823546        2.3053410949
  H         0.7889511559        5.0678470364        2.8105185714
  O         2.2128891735        3.8384459312        6.6358666495
  H         2.7853706361        3.0852790404        6.8770665757
  H         1.7139363403        3.9519531750        7.4665829393
  O         7.2339272568       11.4591695291       10.7710926961
  H         7.4673906375       12.4094198528       10.6571404578
  H         7.0190043825       11.3672805346       11.7381652814
  O        12.0621365332        8.5437829354        3.3774348380
  H        12.0254780878        8.0701399174        4.1916369923
  H        12.7410494306        8.0602793339        2.8823924155
  O         1.3063883396        2.4602284692       -0.0007636259
  H         1.9052840150        2.2854733365        0.7491251039
  H         0.4254906465        2.1827577835        0.2965235487
  O         5.3860734003        9.0794569534        6.3202117380
  H         5.8785347245        9.5042571519        5.5857276329
  H         5.4719922849        8.1026344101        6.0767277248
  O        11.2839469944        4.6186421674        9.4786036796
  H        12.0953894255        4.9298756105        8.9929479886
  H        10.5719977956        4.8002871035        8.8188551712
  O         3.3618759259        4.4744631876       12.0921505559
  H         3.5170523413        3.5778246775       12.5208274590
  H         2.4085128617        4.5695226049       12.1744201579
  O         2.6403410337        6.8207308759        7.8329237597
  H         2.2478604196        6.1753649390        7.1824229861
  H         3.2332032990        7.3508191466        7.2733497202
  O         3.6458424443       12.5125013597       10.9002948780
  H         4.2764503485       12.5205519911       10.1483270106
  H         3.8242361400       11.6306074926       11.3029896379
  O         4.3844674811        2.6839691324        1.8275299471
  H         3.9007512655        2.2296267728        2.5491264907
  H         4.7887074842        3.4503620205        2.2645524711
  O         0.2816291384        9.1943266186       10.1990818950
  H         1.2440583389        9.3020539227        9.9903846207
  H        -0.1419728434        9.7944563246        9.5568600611
  O         3.6285213472        8.7543005249        3.8670641795
  H         4.1452343415        7.9081305040        3.7063200270
  H         3.7801672069        8.8925978288        4.8338693599
  O         5.2329795762        4.6259192980        5.9929648348
  H         5.9217882632        4.3343934238        6.6200508060
  H         4.4066461415        4.5884587819        6.5444079240
  O         6.1304346975       11.3467198030        8.0813702706
  H         5.8699794570       11.4343215800        9.0131673418
  H         6.7249407558       10.5851258285        8.0886443450
  O        -0.2404628608       12.0686401058        2.1428403598
  H         0.4718140090       12.3244594731        2.7791353484
  H         0.0996772006       11.2068487309        1.7597548961
  O         8.8659639011        9.9700305230        0.7157984573
  H         9.6561315468        9.5435080024        1.0757528895
  H         8.3174510896       10.2219062810        1.5059367942
  O         9.1606823867        6.8697399749        9.6721955768
  H         9.7930910675        6.7371872396       10.3762098910
  H         8.5289247627        7.5281175737       10.0155584397
  O         1.5979467632        6.4701335487        4.8312305895
  H         2.1838877170        5.6914846055        4.9696498018
  H         2.0777359795        7.2661860758        5.1378892070
  O         1.4693893313        6.2065635446       10.2979250442
  H         0.6792029576        6.1265136076       10.8457224582
  H         1.2781110613        6.9256111937        9.6744953610
  O         6.0104035798        6.5214022253        8.0823135205
  H         6.7227235984        6.2980365604        7.4312708804
  H         5.5498875997        5.6552135362        8.2272055736
  O        11.4312041819        2.9939475095        7.1273751001
  H        10.7632301758        2.2964185861        6.7658050972
  H        11.4743450884        2.8313563527        8.0812562729
  O         4.2512574969        7.2026874754       10.8121941987
  H         4.8762319383        7.2878577428       10.0977662426
  H         3.4681653353        6.7242725603       10.4574186434
  O         8.3284116430        5.5653622417        5.2622094596
  H         9.0667311004        4.9483543924        5.1379015816
  H         7.7324190988        5.2626755258        4.5230765010
  O         4.3332007951        4.1997549597        9.0489416786
  H         4.1396240209        3.2864188629        9.4145552318
  H         4.1200936774        4.7593209024        9.8454695080
  O         1.2918555894        0.6759338802        6.4159734055
  H         0.8237726245        0.6146360699        5.5683255498
  H         0.8949131394        1.4361759094        6.8911702440
  O         7.7436964246        4.8891440481        2.5774516126
  H         8.3063416921        4.2950735385        2.1035375088
  H         7.8854146614        5.7141768093        2.1440711871
  O        10.4376355126        4.9301293723        1.7179326737
  H        10.8178400574        4.0907262187        2.0444120346
  H        10.2866706062        5.4256047120        2.5439550550
  O         1.3805425144        7.2384607158        1.5340724698
  H         0.9348636835        7.0596507210        0.6676646034
  H         2.1744910959        7.7300031823        1.2686413471
  O         9.1173257698        7.1014132105        0.1975436906
  H         8.7421901907        7.7483089174        0.8688560501
  H        10.0092840006        6.9460006510        0.6146445261
  O        11.2519372552        8.1308047762        7.9971294174
  H        10.3361800151        7.7835148062        7.9199417992
  H        11.3503403543        8.2294077107        8.9842880471
  O         9.2485510991       11.3216668438        7.7607821745
  H         9.6186700852       10.5293828220        8.1888268916
  H         9.2640564705       11.9887508436        8.4879389578
  O         5.9749881693        4.6720214907        0.1098054702
  H         5.7968673964        3.7314416417       -0.0668935542
  H         5.1225972896        5.1065092817       -0.0785545365
  O        10.4043778046       11.0408595335        4.3982736095
  H        11.0454152246       11.1314029055        3.6665568980
  H         9.5255730957       11.1261008179        3.9852613637
  O         9.1127933149        8.4830758597        6.1498651423
  H         8.2520045236        8.6347699125        5.7109158163
  H         9.6145289369        9.3092289942        5.9327678356
  O         7.6867896440       12.1847998720        1.6559853964
  H         7.4193452649       12.3979160294        2.5686454957
  H         8.4181151659       12.8022502495        1.4818031577
  O         5.0810253440       11.9997523706        3.5207732701
  H         4.2003288959       11.9402511954        3.1051599054
  H         5.0473341566       11.5407282761        4.3847839475
     192
 i =        9, E =     -1101.9734512312
  O         3.8738013881        5.6958100605        2.7138483187
  H         3.0639455681        5.3822852236        2.2763762647
  H         4.6049536713        5.6643817594        2.0871611175
  O        12.0816382005       10.6555499084        7.3117018415
  H        11.6173747076        9.7796455087        7.3448541128
  H        11.4801471505       11.2506023973        6.8520988137
  O         1.8880141840       11.1226708352        4.0541516019
  H         1.8457730564       10.2133264023        3.7023565355
  H         2.6640812051       11.1330746397        4.6248922676
  O         1.6786065105        2.1784637312        4.0123548831
  H         2.3287046778        1.5621575663        4.3856120550
  H         1.7161307279        2.9362765747        4.6118085000
  O         8.7721278405        1.5784880806        8.3914841901
  H         8.3502257421        1.3681260979        7.5265774431
  H         8.5880610016        2.5548529591        8.5005649748
  O         9.2410475757        7.7619621459        3.1589079287
  H        10.1424755733        8.0745082751        3.3844522514
  H         9.0443189194        7.0418436746        3.8073056802
  O         2.1571728993        2.0887345452        9.4354931294
  H         2.3389214673        1.1969212078        9.8183449520
  H         1.5751151204        2.4675760640       10.1326787755
  O         7.7250328966       11.4299140622        5.2514913655
  H         7.7486002064       12.3980480179        5.1280338160
  H         8.3266500107       11.2881008166        6.0284857541
  O         1.8728672398        9.2290316976        6.3688111049
  H         1.2456444506        9.9451250450        6.1178912901
  H         1.3067603479        8.6429705616        6.8966340427
  O         3.7406163069       11.8828590384        7.0244011241
  H         2.7981290203       11.7663190213        6.8105797761
  H         4.2085773375       11.0295515740        7.1077800092
  O        11.2154263062        6.0469720711        5.4803236896
  H        10.3498886283        6.3884554608        5.7833789231
  H        11.8486193618        6.3671392755        6.1428787470
  O         2.9964950463        0.2718887364        1.3162471701
  H         3.5897352713        0.5453713155        0.5860107625
  H         2.1373047365        0.1258678684        0.8771062169
  O         5.6429659515        7.7456956475        1.2899299985
  H         4.7544318051        7.6998400975        1.6959150868
  H         6.2162437508        7.9092830821        2.0639618772
  O         4.8702702719       10.4319615799        0.3980637038
  H         4.2822936104       10.4152139217        1.1853638766
  H         5.1281374545        9.4521456401        0.2966803431
  O        11.5752710610        0.8104501683        9.5969436815
  H        11.0235274739        0.8089833417        8.7832407836
  H        11.8580866649       -0.1226405000        9.6606031978
  O         6.9969826659        1.8475198846        3.2848197327
  H         6.6618042288        1.8890810673        2.3681931006
  H         6.2741692099        1.3886243835        3.7674208449
  O         6.8299813402        9.6237727397        3.1626625562
  H         6.0994482667       10.1770219992        2.8248944165
  H         7.3149119392       10.2394867903        3.7557747414
  O         5.5273276025        1.5916326327        5.9961687012
  H         5.0718015881        2.1632157730        6.6327668702
  H         5.4482344321        0.6914401548        6.3640296534
  O         7.9504100872        4.0984210759        9.9816682681
  H         8.6723973528        4.6909571991        9.6972772931
  H         7.3387099328        4.7222892774       10.4311947010
  O         0.8257885351        9.9923587218        0.6032003768
  H         1.2739798907       10.4393541220       -0.1239711516
  H         0.1416978595        9.4786859294        0.1556039056
  O         7.2504620657        8.5263794479       11.0149362168
  H         7.6725924627        8.9631750435       11.7634023175
  H         7.0509167900        7.6288532061       11.3593492594
  O         2.7439151751       10.0017762678        9.5740772429
  H         3.3544147047        9.4092301642        9.1077999563
  H         2.4399985788       10.6517738327        8.9040856653
  O        11.1321892461        3.2372013704        3.9091470136
  H        11.2897344724        3.8858810820        4.6251732811
  H        11.8732603625        2.6011090854        3.9529407864
  O         8.2150664621        2.1668593622        5.6132915415
  H         7.2411080269        2.2662306614        5.6510562931
  H         8.4166994702        2.3925639451        4.6901887160
  O         5.8431325211        6.9291246562        4.2526732717
  H         6.7685165084        7.1736307853        4.4721208791
  H         5.6751694171        6.0174671928        4.6519119393
  O         9.8207196275        1.7010943639        1.4213961613
  H         9.6523633127        1.7711172522        2.3915793694
  H        10.5576268990        1.0584417736        1.3720631480
  O         9.8172409514       10.2854337102       10.2982123866
  H        10.2647317337       10.6259557200       11.0953660672
  H         8.8718008417       10.5019045646       10.4917185238
  O         1.3432162264        4.4996329950        2.2281313217
  H         1.0097528761        3.6057258202        2.3273834392
  H         0.7943592218        5.0921541713        2.7939027454
  O         2.2239208368        3.8386193131        6.6364106793
  H         2.7842416905        3.0722369143        6.8765732168
  H         1.7106346019        3.9438259243        7.4609377739
  O         7.2169580433       11.4838209029       10.7918932894
  H         7.4964666152       12.4198337989       10.6576886276
  H         7.0109625925       11.3779064223       11.7415854002
  O        12.0712989944        8.5460843187        3.3773236065
  H        11.9888036031        8.0264964942        4.2109000534
  H        12.7795932203        8.0920707770        2.8445802278
  O         1.2971982925        2.4484486239       -0.0039622244
  H         1.8919008433        2.2634390621        0.7477445855
  H         0.4106430007        2.1844132973        0.2907391401
  O         5.3961322391        9.0784827566        6.3050094245
  H         5.8804020202        9.5102951620        5.5702440075
  H         5.4754104641        8.1097610298        6.0742325810
  O        11.2839268677        4.6290736852        9.4847667169
  H        12.0923768798        4.9444058918        9.0060763604
  H        10.5804225496        4.8187183351        8.8119877683
  O         3.3475075955        4.4622570987       12.0677859304
  H         3.5183656142        3.5832199779       12.5367769557
  H         2.3886223493        4.5697645386       12.1826346418
  O         2.6447553604        6.8256708377        7.8261672762
  H         2.2597378859        6.1789374201        7.1843896704
  H         3.2531200787        7.3647057955        7.2854679477
  O         3.6522938554       12.5006002736       10.8978526732
  H         4.2722492143       12.5392512208       10.1446408600
  H         3.8397882688       11.6222188323       11.3054578334
  O         4.4121486325        2.6709954764        1.8135196369
  H         3.8795141292        2.2355277493        2.5364500535
  H         4.7771197486        3.4638249616        2.2493584430
  O         0.2717453630        9.1976183817       10.2026036788
  H         1.2359280000        9.3066703461        9.9972751026
  H        -0.1604590942        9.7970729525        9.5697692673
  O         3.5924958736        8.7507407976        3.8575779795
  H         4.1454315132        7.9115713092        3.7115596598
  H         3.7883873250        8.8931700861        4.8309173041
  O         5.2084888541        4.6026745294        5.9949059864
  H         5.9272647568        4.3425208935        6.5986554519
  H         4.4045332268        4.6024440292        6.5438998306
  O         6.1400784579       11.3436345423        8.1012803230
  H         5.8863864532       11.4285838134        9.0295759339
  H         6.7389499950       10.5849193733        8.0841585552
  O        -0.2304675959       12.0820150611        2.1328821457
  H         0.4644208183       12.3226889064        2.7873278963
  H         0.0884985251       11.2263754924        1.7420582818
  O         8.8609260250        9.9608857846        0.7134505155
  H         9.6410619015        9.5223908248        1.0934667544
  H         8.3162445118       10.2515537039        1.4941040965
  O         9.1956115834        6.8714274367        9.6110798505
  H         9.7957921349        6.7284054188       10.3982229710
  H         8.5074270399        7.5164328302       10.0124154264
  O         1.5879373325        6.4616189169        4.8472316185
  H         2.1863705832        5.7018580671        4.9826045115
  H         2.0821822407        7.2762801491        5.1161495301
  O         1.4557383208        6.2096359461       10.2893880057
  H         0.6600217077        6.1140637559       10.8356447480
  H         1.2760639825        6.9343608290        9.6712404532
  O         5.9925894107        6.5418153522        8.0913378485
  H         6.7326742497        6.2982722034        7.4597514143
  H         5.5606061088        5.6496860487        8.2452256691
  O        11.4256331706        2.9763055480        7.1288994991
  H        10.8031677563        2.3002122029        6.7921238770
  H        11.4572064019        2.8393594477        8.0808727164
  O         4.2426464483        7.1822103539       10.8045926484
  H         4.8903239408        7.3375392397       10.0698809367
  H         3.4567135102        6.7216487027       10.4663702541
  O         8.3225897033        5.5637246120        5.2536998160
  H         9.0753173647        4.9315679901        5.1841715522
  H         7.7537343870        5.2523024498        4.5040595568
  O         4.3255121947        4.2101169888        9.0501251139
  H         4.1301081721        3.2999280445        9.3985335618
  H         4.1190986084        4.7656034002        9.8321544036
  O         1.2869151191        0.6535751892        6.4134303105
  H         0.7997695516        0.6205024307        5.5593181480
  H         0.9027910192        1.4206310260        6.9025808858
  O         7.7491663379        4.9013388192        2.6182016059
  H         8.2925312748        4.2699056565        2.0822602753
  H         7.8497515423        5.7410367720        2.1067237712
  O        10.4602731875        4.9348854230        1.7131099538
  H        10.8239074686        4.0965753839        2.0441748650
  H        10.2935234568        5.4350274960        2.5314608330
  O         1.3725228555        7.2282270304        1.5236389593
  H         0.9305743333        7.0528525846        0.6658726254
  H         2.1634344461        7.7433656395        1.2832201416
  O         9.1267420049        7.0649361329        0.2408060506
  H         8.7556910136        7.7334266488        0.8474415747
  H         9.9927303133        6.9280891181        0.6046525097
  O        11.2575209263        8.1079394606        8.0058959432
  H        10.3419049313        7.7914659536        7.9239127830
  H        11.3836806700        8.2226728755        8.9596559730
  O         9.2622536353       11.3082957032        7.7311693109
  H         9.6149846565       10.5244902420        8.2035879019
  H         9.2359222838       11.9910118583        8.4580269812
  O         5.9846811445        4.6959057125        0.0965816602
  H         5.8157549412        3.7518118937       -0.0692595569
  H         5.1244779267        5.1166525723       -0.0993330413
  O        10.4227961011       11.0327044638        4.4093968653
  H        11.0504039745       11.1301860259        3.6645926264
  H         9.5466200170       11.1386892538        4.0006882956
  O         9.1119814282        8.5046226901        6.1384474494
  H         8.2538899576        8.6233370444        5.7229305358
  H         9.6240152800        9.3060587500        5.9260130939
  O         7.7048810603       12.1537640003        1.6391948879
  H         7.4039724264       12.4212483156        2.5404868048
  H         8.4190724888       12.8094379581        1.4695166227
  O         5.0757440269       12.0070254230        3.5050852024
  H         4.1872106461       11.9284106951        3.0967668136
  H         5.0194030122       11.5655693761        4.3715421311
     192
 i =       10, E =     -1101.9881925574
  O         3.8955541670        5.6660773632        2.7401924710
  H         3.0481081839        5.3867457305        2.2824326839
  H         4.6196368329        5.6608543807        2.0741224573
  O        12.1071072126       10.6350927617        7.3111150034
  H        11.6260030115        9.7627829082        7.3819748129
  H        11.4688635291       11.2222425306        6.8629732290
  O         1.8642006293       11.1513840396        4.0851777310
  H         1.8340285745       10.2463297431        3.7105529392
  H         2.6716297777       11.1279711611        4.6462314038
  O         1.6751003816        2.1899839845        3.9995560370
  H         2.2794273378        1.5341402700        4.3760806587
  H         1.7458946085        2.9316346351        4.6318735948
  O         8.8089509327        1.5549700522        8.3700542238
  H         8.3551115801        1.3817069806        7.5222802686
  H         8.5298063032        2.5048810806        8.5695103656
  O         9.2660806300        7.7258731352        3.1573330654
  H        10.1623543460        8.0754679571        3.3919811548
  H         9.0762798164        7.0337072449        3.8284433048
  O         2.1479162009        2.0951859739        9.4280010723
  H         2.3601690637        1.2183447231        9.7946101204
  H         1.6000268048        2.4790627929       10.1335060342
  O         7.7160917960       11.4429611783        5.2262792755
  H         7.7512996277       12.4075265891        5.1376018041
  H         8.2839157173       11.3278057926        6.0946707243
  O         1.8914174888        9.2040445027        6.3586336860
  H         1.2455060774        9.9150920165        6.1371674378
  H         1.3392682730        8.6301922750        6.9351849951
  O         3.7215872989       11.8958906961        7.0034430602
  H         2.7669730088       11.7759047518        6.8179890409
  H         4.1701398987       11.0394294793        7.1090305848
  O        11.1666655656        6.0659432397        5.4694202896
  H        10.3369333308        6.4456208356        5.7940941022
  H        11.8534958124        6.3612453345        6.0842227135
  O         3.0264477898        0.2529536564        1.3320414594
  H         3.5944539341        0.5391006805        0.5754932881
  H         2.1529337059        0.1158973368        0.9146033391
  O         5.6528492703        7.7449880767        1.2717716621
  H         4.7621460929        7.6305720547        1.6889639504
  H         6.2182440971        7.9616076950        2.0583618930
  O         4.8611927728       10.3658262950        0.4161400669
  H         4.2547010361       10.4232595359        1.1652165213
  H         5.1043811293        9.4805236514        0.2417769006
  O        11.6006011308        0.7924143226        9.5929026304
  H        10.9501096226        0.8032593939        8.8339988423
  H        11.8666011464       -0.1345644376        9.6340468177
  O         6.9638018278        1.8536671336        3.2601546226
  H         6.6172374728        1.9138475621        2.3498335191
  H         6.2223165600        1.4189961150        3.7437652025
  O         6.8392849353        9.6360711873        3.1955613385
  H         6.1279867077       10.1880872676        2.8122315896
  H         7.3238801822       10.2670191001        3.7745575711
  O         5.5261635916        1.5713208956        6.0112907865
  H         5.0725162359        2.1766722259        6.6115319379
  H         5.4279840854        0.6943348281        6.4026192030
  O         7.9695790291        4.1028548177        9.9778475724
  H         8.6490845194        4.7237630758        9.6996432166
  H         7.3137956063        4.6616978814       10.4210367196
  O         0.8195121437       10.0396532258        0.6101837314
  H         1.2953598717       10.4423256861       -0.1527108193
  H         0.1618608042        9.4734528545        0.1215368327
  O         7.2290394466        8.5278044738       10.9870396629
  H         7.6949842680        8.9603498275       11.7380929264
  H         7.0018767557        7.6529283748       11.3706598657
  O         2.7673458784       10.0087406944        9.5656982201
  H         3.3812678509        9.3796443274        9.1401099791
  H         2.4969287626       10.6581544719        8.8655692687
  O        11.1203792977        3.2053799421        3.9359299498
  H        11.2925465101        3.8616667597        4.6202591136
  H        11.8942963399        2.5975622437        4.0093003667
  O         8.2394124500        2.1686985322        5.6539584795
  H         7.2600117669        2.2113343768        5.7061821610
  H         8.4330820633        2.3700017338        4.7351271593
  O         5.8561826659        6.8957872190        4.2981154369
  H         6.7581413094        7.1667456259        4.4873590351
  H         5.6786733257        6.0524409160        4.6888656027
  O         9.8265958801        1.6582950204        1.4483018729
  H         9.7066862968        1.8059820884        2.4258710542
  H        10.5708796195        1.0166580834        1.4248279155
  O         9.8215161641       10.2850804259       10.3062740820
  H        10.2548805977       10.6192480524       11.0966050172
  H         8.8766558421       10.5094169300       10.4719959618
  O         1.3614258390        4.5154174811        2.2103159712
  H         0.9990870709        3.6142634369        2.3821266221
  H         0.8238170237        5.1002720546        2.7634610000
  O         2.2430847761        3.8278945837        6.6360995504
  H         2.7843179350        3.0508687730        6.8801152525
  H         1.7035222667        3.9283843786        7.4443656178
  O         7.2002831361       11.5189938567       10.8133642856
  H         7.5397753057       12.4329306933       10.6772704988
  H         6.9873526585       11.4182984597       11.7484231281
  O        12.0681449860        8.5419728661        3.3868223024
  H        11.9942228685        7.9758645443        4.2046491947
  H        12.7947537754        8.1239911726        2.8089887912
  O         1.2772442373        2.4198778975       -0.0102874443
  H         1.8657618665        2.2208228767        0.7415637757
  H         0.3786991235        2.1865892951        0.2813645627
  O         5.4384452333        9.0580080741        6.2786355199
  H         5.8809947647        9.5202001265        5.5459503761
  H         5.4606277786        8.1410193259        6.0642607553
  O        11.2938630472        4.6916574285        9.4745343945
  H        12.0891765523        4.9493429899        9.0238199177
  H        10.5954399657        4.8390166892        8.8299061565
  O         3.3076058782        4.4258401835       12.0777249069
  H         3.5413717641        3.6125923346       12.5186399898
  H         2.3450005786        4.5687467914       12.1913377180
  O         2.6630537801        6.8232010028        7.8106378164
  H         2.2773339716        6.2043344070        7.1974936776
  H         3.2867024701        7.3856890275        7.3056094159
  O         3.6729996806       12.4776125267       10.9064144432
  H         4.2630352916       12.5657327798       10.1477508072
  H         3.8706121974       11.6077972928       11.2942665153
  O         4.4237264234        2.6656957005        1.8093715452
  H         3.8779284107        2.2252506247        2.4863380735
  H         4.7563199741        3.4962347936        2.2263600287
  O         0.2534169525        9.2051385026       10.2183174609
  H         1.2192146527        9.3212448637       10.0037809119
  H        -0.1961913011        9.8029578761        9.5981967761
  O         3.6145464425        8.7300381859        3.8586571266
  H         4.0885450043        7.9083806358        3.7240430932
  H         3.7665898593        8.9195373913        4.8027827015
  O         5.1684779748        4.5667394523        5.9864058069
  H         5.9303088596        4.3602457700        6.5558561055
  H         4.4051584140        4.6211152933        6.5513926702
  O         6.1392108231       11.3425687341        8.1115497622
  H         5.9428008573       11.4032501108        9.0756368942
  H         6.7724055040       10.5957770614        8.0754613132
  O        -0.2184826514       12.1103178860        2.1177251571
  H         0.4549542356       12.3111610009        2.8007474062
  H         0.0758630291       11.2690510454        1.7076782832
  O         8.8557491194        9.9290541580        0.7059056168
  H         9.6156540255        9.4871235007        1.1293540336
  H         8.3190561032       10.3066583126        1.4644040307
  O         9.1835360356        6.8659083334        9.6381085330
  H         9.7774333979        6.7214112218       10.3587061130
  H         8.5565286708        7.4982180459        9.9504852093
  O         1.5743309705        6.4504297678        4.8741682041
  H         2.2055701338        5.7208391598        4.9952362276
  H         2.0733111568        7.2875066311        5.0780722554
  O         1.4342442837        6.2054540090       10.2777553406
  H         0.6243388341        6.0985166384       10.8085510432
  H         1.2604187381        6.9459623539        9.6702537722
  O         6.0174732649        6.5143293804        8.1235757878
  H         6.7158022802        6.3300337566        7.4954753631
  H         5.5572735014        5.6832961823        8.2863852401
  O        11.4696340892        2.9554372274        7.0983436815
  H        10.8347557235        2.3051911854        6.8320007025
  H        11.4039214013        2.8409236854        8.1098300951
  O         4.2501930005        7.2139094445       10.7909254030
  H         4.8692305764        7.3625479258       10.0366559376
  H         3.4609196618        6.7139999452       10.4659385693
  O         8.3107100752        5.5472813271        5.2571015454
  H         9.0756669920        4.9131182742        5.2551762589
  H         7.8040416162        5.2205213059        4.4620774811
  O         4.3094331818        4.2186179294        9.0429914246
  H         4.1157699080        3.3457156868        9.3784125096
  H         4.1117851149        4.7628580867        9.8087367145
  O         1.2730818441        0.6344499340        6.4131385858
  H         0.7740714372        0.6121641219        5.5702687118
  H         0.8962838266        1.3904844248        6.9044741825
  O         7.7275320392        4.9093626615        2.6004090410
  H         8.2728050687        4.2762729808        2.0947450136
  H         7.7963195348        5.7487876345        2.0766409915
  O        10.5084782179        4.9468026987        1.7030952914
  H        10.8405126441        4.1089717338        2.0452545871
  H        10.3056759013        5.4562832554        2.5035903786
  O         1.3675227529        7.2074929470        1.4994926894
  H         0.9237790947        7.0445205204        0.6742802276
  H         2.1417204045        7.7725534467        1.3052983909
  O         9.1181091051        7.0541532350        0.2556091082
  H         8.7514278439        7.7293397040        0.8265576423
  H        10.0165355239        6.8029978006        0.6369001968
  O        11.2725868815        8.0958227886        7.9802977054
  H        10.3513032977        7.7989919993        7.9420544037
  H        11.4395169825        8.1770688999        8.9382386660
  O         9.2617234126       11.2893778327        7.6889252203
  H         9.6002350323       10.5255584538        8.2227636040
  H         9.2014822179       11.9783379923        8.3942427401
  O         6.0096968213        4.7425752224        0.0700512708
  H         5.8570305669        3.7915609588       -0.0720850055
  H         5.1321919021        5.1357092473       -0.1412896478
  O        10.4587364885       11.0147411703        4.4243375782
  H        11.0677372009       11.1223128460        3.6656632528
  H         9.5742081515       11.1653495264        4.0365914253
  O         9.1195103930        8.5127152805        6.1720921631
  H         8.2590719654        8.6170868574        5.7099224663
  H         9.6399296558        9.3183045052        5.8876268257
  O         7.7216026238       12.1231087206        1.6151011400
  H         7.3820369292       12.4540553916        2.4911790195
  H         8.4173370662       12.8033415410        1.4292900715
  O         5.0539745755       12.0167145351        3.4852530992
  H         4.1727513199       11.9207627753        3.0716642168
  H         4.9701766427       11.6035324623        4.3572684608
     192
 i =       11, E =     -1102.0288220118
  O         3.9000464922        5.6544931514        2.7507639719
  H         3.0722436580        5.3762194166        2.2998313121
  H         4.6107404403        5.6466883337        2.0675653388
  O        12.1063336692       10.6020697616        7.3136340717
  H        11.6591008855        9.7466452223        7.4089093815
  H        11.4682427983       11.1905198901        6.8785818263
  O         1.8631739200       11.1683032111        4.1113322410
  H         1.8191008953       10.2871367179        3.7250228021
  H         2.6533944571       11.1310299973        4.6737069191
  O         1.6613668801        2.1981278833        3.9963839581
  H         2.2355949702        1.4991196896        4.3638166677
  H         1.7745375158        2.9322197464        4.6565270393
  O         8.8192650139        1.5278590735        8.3775345012
  H         8.3690234070        1.4022786737        7.5115261705
  H         8.4882760439        2.4490454972        8.6326416533
  O         9.2943937380        7.6927871484        3.1651133927
  H        10.1803035856        8.0602031629        3.3956965024
  H         9.1171251565        7.0283004879        3.8510168749
  O         2.1502672745        2.1086866865        9.4208972789
  H         2.3747294247        1.2338590240        9.7701117986
  H         1.6215136395        2.4838651531       10.1416419526
  O         7.7134987562       11.4714062541        5.2735156183
  H         7.7542459770       12.4316689611        5.1321267729
  H         8.2518439489       11.3299779824        6.0997379855
  O         1.8778777689        9.1860136212        6.3686835373
  H         1.2545204081        9.8881254144        6.1495178869
  H         1.3901607355        8.6055517168        6.9569953340
  O         3.7026367912       11.9124350278        6.9726978073
  H         2.7353150212       11.7927531446        6.8199150840
  H         4.1333390436       11.0401470590        7.1215429258
  O        11.1264433607        6.0622491618        5.4564993559
  H        10.3243683105        6.5189680545        5.7966707476
  H        11.8577145038        6.3629578619        6.0316979333
  O         3.0541965513        0.2425758320        1.3385204375
  H         3.6052365676        0.5285614587        0.5721609419
  H         2.1741720096        0.1035511663        0.9450237599
  O         5.6568929496        7.7376350672        1.2708524324
  H         4.7822320481        7.5816499727        1.6911445479
  H         6.2219022505        7.9988598373        2.0475470507
  O         4.7992113662       10.3702115327        0.3586299676
  H         4.2323740041       10.4077309529        1.1474258965
  H         5.1091882865        9.4482870183        0.2594024523
  O        11.5946842058        0.7847437031        9.6037602107
  H        10.8902210655        0.7924857226        8.8873577584
  H        11.8824158858       -0.1510172116        9.5956504568
  O         6.9346771130        1.8479496175        3.2424376083
  H         6.5720392518        1.9383975292        2.3360021726
  H         6.1782431506        1.4400109807        3.7252599055
  O         6.8489299908        9.6544574457        3.2249687086
  H         6.1519823477       10.2015732715        2.8015804001
  H         7.3313489009       10.2941961792        3.7907213517
  O         5.5671900616        1.5704795540        6.0181021087
  H         5.0670552066        2.1917861116        6.5895016220
  H         5.3882842209        0.6832686138        6.4469581014
  O         7.9759528944        4.0736058475        9.9368084779
  H         8.6396619687        4.7899889961        9.7062611951
  H         7.2932050724        4.5914329532       10.4276787983
  O         0.8188041699       10.0565537704        0.5712353138
  H         1.3131924561       10.4543873214       -0.1632132612
  H         0.1790026634        9.4969860330        0.1138383727
  O         7.2092683548        8.5344509303       10.9652518938
  H         7.7229860168        8.9598719218       11.7038931013
  H         6.9621367884        7.6850517273       11.3795739152
  O         2.7899739835       10.0165924243        9.5666555127
  H         3.4005732056        9.3600707121        9.1702433923
  H         2.5494092718       10.6398964932        8.8384335869
  O        11.1301292345        3.1593859932        3.9576571095
  H        11.2725731699        3.8664349676        4.6292528819
  H        11.9101566346        2.5775233818        4.0403397032
  O         8.2511330244        2.1462797060        5.6957941956
  H         7.2643718436        2.1541603932        5.7512882996
  H         8.4451770081        2.3605005319        4.7711944737
  O         5.8233748736        6.9403962651        4.3519691234
  H         6.7751435376        7.1559367885        4.5017344037
  H         5.7006250612        6.0137682122        4.7166565533
  O         9.8418952337        1.6237478829        1.4838773834
  H         9.7532168359        1.8276796525        2.4568265674
  H        10.5837321968        0.9744958548        1.4767880175
  O         9.8164918265       10.3000369011       10.2919541932
  H        10.2470260054       10.5991624432       11.1100509585
  H         8.8702341360       10.5189763960       10.4589594404
  O         1.3757553379        4.5142814583        2.2006490404
  H         1.0199191378        3.6160374555        2.4294882630
  H         0.8457428912        5.1235765955        2.7323726487
  O         2.2588852277        3.8154145876        6.6348934001
  H         2.7848653022        3.0329891453        6.8834803674
  H         1.6964954484        3.9137522057        7.4280338999
  O         7.2174623039       11.5438406416       10.8118956558
  H         7.5799994954       12.4469894784       10.7099401336
  H         6.9410321399       11.4700299949       11.7642158694
  O        12.0818161605        8.5504213322        3.3875183701
  H        12.0484638239        7.9445592880        4.1608032242
  H        12.7464256284        8.1218706720        2.8088884773
  O         1.2577471505        2.3887641145       -0.0185224421
  H         1.8372829530        2.1797266570        0.7365485523
  H         0.3495431696        2.1875117891        0.2722496992
  O         5.4254945373        9.0845654690        6.2470055086
  H         5.8869617233        9.5250920859        5.5086560040
  H         5.4993205441        8.1383175880        6.0623084668
  O        11.2857551689        4.7086131131        9.4666812973
  H        12.1069750459        4.9851257419        9.0531233322
  H        10.5946166303        4.8697436717        8.8269542920
  O         3.2828413609        4.4131587660       12.0363167185
  H         3.5380354603        3.6327055986       12.5545480141
  H         2.3267563471        4.5421628657       12.2040148512
  O         2.6658297772        6.8544633730        7.8269346508
  H         2.3286476046        6.2110715299        7.1839832913
  H         3.3062196035        7.3918406071        7.3237613353
  O         3.6635475145       12.4709458330       10.9078710336
  H         4.2650658894       12.5848919142       10.1549370368
  H         3.9159254746       11.5980749018       11.2812613955
  O         4.4380026793        2.6645807368        1.7923369400
  H         3.8768091604        2.2296175608        2.4330220434
  H         4.7295128998        3.5146401854        2.2095982714
  O         0.2417910436        9.2102975919       10.2338653828
  H         1.2069978353        9.3418372085        9.9993309658
  H        -0.2315396511        9.8040615309        9.6231310033
  O         3.6014013916        8.7024833565        3.8652861788
  H         4.0673050530        7.8969380627        3.7218906076
  H         3.7465325781        8.9452604957        4.7841593663
  O         5.1403375666        4.5581247031        5.9616498375
  H         5.9211196341        4.3832100986        6.5151373255
  H         4.4029895409        4.6159699075        6.5837993523
  O         6.1362701101       11.3421501472        8.1286748407
  H         5.9945603803       11.3768184146        9.1237957672
  H         6.7934964644       10.6078820140        8.0725232775
  O        -0.2259374849       12.1445330213        2.1206319510
  H         0.4537625674       12.2950324252        2.8155542770
  H         0.0683987499       11.3159933807        1.6495823897
  O         8.8511831444        9.9004223327        0.6982368523
  H         9.5873669714        9.4565298448        1.1643810989
  H         8.3220477813       10.3584027190        1.4319572100
  O         9.2358163602        6.8657058884        9.5487653916
  H         9.7749424970        6.7086613723       10.3941139911
  H         8.5223544988        7.4723743920        9.9326519012
  O         1.5801853105        6.4475270757        4.9058950909
  H         2.2311929820        5.7385596146        4.9992354309
  H         2.0373328783        7.2907085468        5.0543735379
  O         1.4194988335        6.2015629292       10.2673291955
  H         0.5928242781        6.0879428182       10.7747886643
  H         1.2417444650        6.9588194111        9.6708366512
  O         6.0070474204        6.5122530108        8.1411100526
  H         6.7264393329        6.3521114448        7.5386150661
  H         5.5600872672        5.6891304032        8.3309639154
  O        11.5126771479        2.9186122743        7.1353560453
  H        10.8011196434        2.3003145522        6.8419087962
  H        11.4350888858        2.8740061044        8.1214525304
  O         4.2539099254        7.2370533734       10.7774831855
  H         4.8252137860        7.3630560459       10.0072585215
  H         3.4852212928        6.7406556956       10.4508573148
  O         8.3042948593        5.5222997347        5.2682349040
  H         9.0742642968        4.9075038661        5.3158932628
  H         7.8566055521        5.1924135424        4.4267682565
  O         4.3399202765        4.2543460060        9.0296223751
  H         4.0714786418        3.3561602678        9.3278548496
  H         4.0896605079        4.7789857119        9.8199990844
  O         1.2562954765        0.6251953891        6.4008418230
  H         0.7529580928        0.5899483167        5.5847286001
  H         0.8821969028        1.3601275358        6.9062444240
  O         7.6957536387        4.9179889852        2.6246314362
  H         8.2497754703        4.3062590411        2.0811856767
  H         7.7649815684        5.7446416214        2.0354752141
  O        10.5389168000        4.9549549961        1.6907198458
  H        10.8699948652        4.1170805046        2.0523716709
  H        10.3155826116        5.4776212749        2.4803238582
  O         1.3455661968        7.2154125402        1.5124850929
  H         0.9376874258        7.0262745385        0.6537938064
  H         2.1040146332        7.7935444133        1.3191484890
  O         9.1160799487        7.0042942975        0.2570660102
  H         8.7871282768        7.7148488972        0.8224611561
  H         9.9816437064        6.7349162930        0.6435172205
  O        11.2952013164        8.0966906230        7.9562131498
  H        10.3661643120        7.8009198017        7.9577496111
  H        11.5045488774        8.1317846590        8.9270441088
  O         9.2566989394       11.2650017729        7.6679964808
  H         9.5873932741       10.5212814436        8.2195463066
  H         9.1731256703       11.9771721717        8.3323118553
  O         6.0168696620        4.7899977856        0.0392489307
  H         5.8892420149        3.8281783414       -0.0760282472
  H         5.1327528326        5.1628951428       -0.1850292744
  O        10.4975835220       11.0042997272        4.4351710437
  H        11.0914280188       11.1116729406        3.6693364909
  H         9.5973929075       11.1922129287        4.0781154681
  O         9.1314156791        8.5390022613        6.1615615788
  H         8.2766842534        8.6133619917        5.7156225853
  H         9.6335297527        9.3106049262        5.8796323845
  O         7.7263823681       12.1333194074        1.6019524184
  H         7.3760613872       12.4793691562        2.4506917917
  H         8.4228159993       12.7880123429        1.3869647218
  O         5.0181470997       12.0226590878        3.4564009178
  H         4.1546407558       11.9190988344        3.0277133300
  H         4.9320926894       11.6409470219        4.3511185516
     192
 i =       12, E =     -1102.0176992737
  O         3.9134542773        5.6488806589        2.7463327431
  H         3.1107564989        5.3646204434        2.3244193163
  H         4.6052236138        5.6120385037        2.0715733208
  O        12.1602062378       10.5755340953        7.3082840147
  H        11.6604399137        9.7135509360        7.4742333784
  H        11.4536239147       11.1519577342        6.8923537650
  O         1.8352320705       11.2151759372        4.1676568566
  H         1.8097106763       10.3226271787        3.7079466072
  H         2.6349539722       11.1445926284        4.7235622478
  O         1.6702771556        2.2350247819        3.9881111738
  H         2.1642104402        1.4431339596        4.3425335517
  H         1.7896378873        2.9171858875        4.6866666492
  O         8.7976445812        1.4994610765        8.4160928206
  H         8.4200395646        1.4300335521        7.4940785322
  H         8.4541968253        2.3724022004        8.7207638924
  O         9.3345880907        7.6386489226        3.1484617329
  H        10.2105452272        8.0487142245        3.3871607523
  H         9.1656884676        7.0219485430        3.9106945304
  O         2.1777027509        2.1499649604        9.4013882859
  H         2.3879013438        1.2471598203        9.7235915599
  H         1.6496154579        2.4879343511       10.1600818824
  O         7.7056584158       11.5020994238        5.2977041480
  H         7.7550266254       12.4656218496        5.1482080482
  H         8.1974474662       11.3498628914        6.1359189040
  O         1.9264014188        9.1324734827        6.3135136254
  H         1.2246167919        9.8766051091        6.1979208772
  H         1.4512813890        8.5718183509        7.0376454711
  O         3.6615507104       11.9051066724        6.9471411760
  H         2.7017875671       11.8350029575        6.8103074492
  H         4.0872404129       11.0489715765        7.1248655810
  O        11.0595633365        6.0759829938        5.4299043644
  H        10.3144937668        6.6263895343        5.8123452780
  H        11.8610082903        6.3550317938        5.9441436165
  O         3.0836086034        0.2323797647        1.3497690050
  H         3.6188234984        0.5044043612        0.5812652380
  H         2.1990189308        0.0777237781        0.9911575306
  O         5.6654412245        7.7496283856        1.2700686572
  H         4.8193541585        7.5219942033        1.6988395025
  H         6.2245498270        8.0290395488        2.0109094684
  O         4.7158554241       10.3909584086        0.2643666228
  H         4.2114237631       10.3831840526        1.1135762639
  H         5.1137536292        9.4117231913        0.2866384664
  O        11.5735422502        0.7744688974        9.6189843336
  H        10.8216656620        0.7745400969        8.9643556509
  H        11.8987877505       -0.1708460152        9.5386488624
  O         6.8923024663        1.8486992263        3.2130032893
  H         6.4934013554        1.9839713902        2.3140858485
  H         6.1131622199        1.4834438773        3.6994967621
  O         6.8604084538        9.6741625387        3.2679654665
  H         6.1944860714       10.2251134283        2.8006826100
  H         7.3360252090       10.3276430885        3.8171043704
  O         5.5502483990        1.5199050239        6.0498146130
  H         5.0751379051        2.2217253423        6.5435087525
  H         5.3837758935        0.6967717707        6.5051824982
  O         8.0084554765        4.0866181687        9.9297141311
  H         8.5905343918        4.8274290604        9.6961350642
  H         7.2545144988        4.5003781897       10.4117637041
  O         0.8151545043       10.1057892713        0.5437916385
  H         1.3494991062       10.4688533993       -0.1914454615
  H         0.2066550876        9.5056069542        0.0770772590
  O         7.1807275102        8.5293852493       10.9518895717
  H         7.7663991757        8.9730688033       11.6286214002
  H         6.8793926955        7.7052257154       11.4077819295
  O         2.8243850081       10.0252097457        9.5681513388
  H         3.4273030893        9.3361140002        9.2033326581
  H         2.6276248732       10.6059816065        8.7951273683
  O        11.1319202356        3.1095727928        3.9897961985
  H        11.2609619781        3.8501162686        4.6411115218
  H        11.9356843531        2.5572860480        4.1119483198
  O         8.2771522228        2.1154627830        5.7615208353
  H         7.2775092156        2.0724313781        5.8168258669
  H         8.4626288686        2.3550245165        4.8224678255
  O         5.8215791224        6.9317923496        4.4286641418
  H         6.7754309238        7.1481565801        4.5217995143
  H         5.7071164274        6.0122566700        4.7633328688
  O         9.8788322824        1.5851790532        1.5470221597
  H         9.8196664949        1.8436437862        2.4945844157
  H        10.6091894543        0.9184499507        1.5556974172
  O         9.8178528573       10.3201257276       10.2660160651
  H        10.2315074298       10.5694303194       11.1307948051
  H         8.8680600563       10.5293391860       10.4438223667
  O         1.3729435265        4.4989535397        2.1937037507
  H         1.0874561521        3.6153485761        2.4856549028
  H         0.8457619564        5.1948151501        2.6881543251
  O         2.2835766133        3.7930900033        6.6301484706
  H         2.7855837509        3.0011711137        6.8906143848
  H         1.6771024888        3.8871412104        7.3938764014
  O         7.1934346119       11.5890434398       10.8351190667
  H         7.6328984936       12.4701825814       10.7610559308
  H         6.9159238701       11.5457512118       11.7637547548
  O        12.1044518405        8.5492214685        3.4026392297
  H        12.1353466461        7.9028999199        4.1164894825
  H        12.6705581664        8.1213238308        2.7858889200
  O         1.2214355473        2.3361899972       -0.0380330571
  H         1.7860682809        2.1186616545        0.7250341993
  H         0.3078206344        2.1843360679        0.2644120680
  O         5.3874525787        9.1390649205        6.2124512210
  H         5.8965646602        9.5185363646        5.4538964236
  H         5.5685072956        8.1373568893        6.0551625945
  O        11.2789677588        4.6852910351        9.4839773320
  H        12.1373250227        5.0619150403        9.1017336166
  H        10.6073248048        4.9502517782        8.7915769908
  O         3.2495858174        4.4158563938       11.9488575505
  H         3.5211967253        3.6728305809       12.6255284886
  H         2.3091915539        4.4892317393       12.2236934847
  O         2.6708500541        6.9064923552        7.8533438025
  H         2.4039939721        6.2206426645        7.1694806773
  H         3.3420671630        7.3996993829        7.3513522817
  O         3.6590139800       12.4534953954       10.9197787267
  H         4.2786041784       12.6120119716       10.1722818858
  H         3.9867200991       11.5731298044       11.2601473353
  O         4.5120104191        2.6599418544        1.7400041878
  H         3.8355668742        2.2634552298        2.3621461022
  H         4.6777714936        3.5259164964        2.2057912857
  O         0.2223690490        9.2168706946       10.2541681562
  H         1.1844775657        9.3702986856        9.9979321273
  H        -0.2825639542        9.8158569198        9.6691447767
  O         3.4542154692        8.6742673965        3.8547635283
  H         4.1190288335        7.8857327657        3.7147414119
  H         3.7572037333        8.9811943646        4.7754655406
  O         5.0950081805        4.5286323769        5.9237107923
  H         5.9162370568        4.4204068752        6.4460216408
  H         4.4048554430        4.6165532407        6.6329750499
  O         6.1778920874       11.3371102433        8.1793889542
  H         6.0624227488       11.3645396534        9.1608281805
  H         6.8119368809       10.6067159501        8.0617513942
  O        -0.2365910234       12.1929111417        2.1191087532
  H         0.4555318321       12.2695153040        2.8263792907
  H         0.0660902513       11.3907033561        1.5823884441
  O         8.8526528115        9.8694111885        0.6881945603
  H         9.5477036471        9.4172393741        1.2207882895
  H         8.3344189538       10.4091400325        1.3708370654
  O         9.2540310149        6.8569368870        9.5477338984
  H         9.7694097023        6.6993642494       10.3567748508
  H         8.5168988948        7.4435498255        9.8694099192
  O         1.5237142440        6.4283391399        4.9684379605
  H         2.3016065843        5.7445643275        4.9932670222
  H         2.0161263443        7.3282013714        4.9915480930
  O         1.3806969989        6.1880393239       10.2525980350
  H         0.5380452687        6.0752968476       10.7306474881
  H         1.2241922134        6.9679510283        9.6732035724
  O         5.9212592657        6.5923354157        8.1475314266
  H         6.7870347763        6.3649540155        7.6258889157
  H         5.5943293204        5.6494118742        8.4043718470
  O        11.5157311220        2.8550211204        7.1841337854
  H        10.8027826424        2.2914961959        6.8780413952
  H        11.4758407845        2.9224641421        8.0969655533
  O         4.2552177789        7.2454034629       10.7541343426
  H         4.7860165677        7.3798724411        9.9572819113
  H         3.5043638385        6.7874449553       10.4439490082
  O         8.2871421395        5.4819474686        5.2534561426
  H         9.0724566869        4.8982426401        5.3983472441
  H         7.9247079542        5.1340244009        4.3987672637
  O         4.3610502960        4.2923163623        9.0233253034
  H         4.0089442569        3.3728342647        9.2682430603
  H         4.0613079570        4.8013414431        9.8151142251
  O         1.2378276303        0.6035365409        6.3876728795
  H         0.6954581369        0.5649058139        5.6023473140
  H         0.8655703475        1.3152538171        6.9375120124
  O         7.6367718009        4.9350249686        2.5771605366
  H         8.2127006084        4.3413908490        2.0791714156
  H         7.7142131050        5.7310499858        2.0404380999
  O        10.5883640922        4.9744128366        1.6736755253
  H        10.9202435237        4.1324834127        2.0659653854
  H        10.3328311016        5.5173414495        2.4488481576
  O         1.3219247092        7.2257906742        1.5334177741
  H         0.9641571070        6.9999977366        0.6292946186
  H         2.0506685181        7.8295591212        1.3359091182
  O         9.1220319482        6.8894497102        0.2662690766
  H         8.8667396066        7.6782493136        0.8217924636
  H         9.8990659730        6.6567583662        0.6528622466
  O        11.3221296873        8.0413508828        7.9566745894
  H        10.3790308254        7.8019029521        7.9828079724
  H        11.5986358004        8.0945628027        8.8651182697
  O         9.2532793288       11.2194427675        7.6411894936
  H         9.5598856997       10.5024814457        8.2050761877
  H         9.1133053791       11.9937099979        8.2411794570
  O         6.0384843374        4.8532253807       -0.0167458099
  H         5.9357041215        3.8834866480       -0.0794206384
  H         5.1591849190        5.2081205301       -0.2560502230
  O        10.5428753126       10.9974538982        4.4654222017
  H        11.1118827913       11.0860392725        3.6813241922
  H         9.6480348756       11.2263226082        4.1327348096
  O         9.1470481233        8.5449561532        6.2027422399
  H         8.2965528708        8.6123320056        5.7109524823
  H         9.6495633485        9.3254474506        5.8125239576
  O         7.7282198983       12.1291658902        1.5745509475
  H         7.3541087271       12.5190036452        2.3803521539
  H         8.4275918814       12.7586491738        1.3248811862
  O         4.9727883950       12.0416115855        3.4336964711
  H         4.1298592674       11.9151968602        2.9730578495
  H         4.8671330095       11.6950233009        4.3371336614
     192
 i =       13, E =     -1102.0566806523
  O         3.9416506440        5.6475152174        2.7470551393
  H         3.0955789791        5.3758054681        2.3150065435
  H         4.6299327357        5.6025857669        2.0688627166
  O        12.1173580652       10.5896070608        7.3323950499
  H        11.6662654697        9.7304694950        7.4775914617
  H        11.4792284217       11.1456252932        6.8863475985
  O         1.8561856898       11.2102693802        4.1423931485
  H         1.7966146583       10.3338023231        3.7193140967
  H         2.6167384548       11.1580127997        4.7197814739
  O         1.6959123303        2.2554661818        3.9655969686
  H         2.1414276128        1.4441483165        4.3387784685
  H         1.7870005440        2.8995205332        4.6852905772
  O         8.7807653599        1.5142829051        8.4331836417
  H         8.4618334601        1.4307389997        7.4993009958
  H         8.4639879602        2.3707999211        8.7385991444
  O         9.3371729619        7.6390767970        3.1648020369
  H        10.1960250608        8.0598488852        3.3453215863
  H         9.1719016047        7.0187379486        3.9059110898
  O         2.1929500746        2.1654950251        9.3874417484
  H         2.3899267307        1.2482003640        9.7104965401
  H         1.6589232003        2.4972109189       10.1546017431
  O         7.6963219011       11.5105081342        5.2897234356
  H         7.7533438257       12.4817661937        5.1768875058
  H         8.1708236821       11.3416745283        6.1468640076
  O         1.9012228369        9.1586848055        6.3778293935
  H         1.2335162503        9.8514131872        6.2029072539
  H         1.4903883712        8.5683693067        6.9982758208
  O         3.6644636823       11.8937729361        6.9450697585
  H         2.7027802568       11.8461906422        6.8082994726
  H         4.0844471333       11.0378670844        7.1171620108
  O        11.0375701774        6.1159021450        5.4177164438
  H        10.3229255507        6.6327226948        5.8343536391
  H        11.8595733895        6.3347591744        5.9170198433
  O         3.0681915455        0.2335965302        1.3652543149
  H         3.6080001806        0.4910075429        0.5947519675
  H         2.1869158115        0.0635056861        1.0054505736
  O         5.6633877246        7.7605272166        1.2558848457
  H         4.8301793170        7.5232532220        1.6951896276
  H         6.2250854751        8.0307924358        1.9867261683
  O         4.7478352719       10.3845554240        0.2808650418
  H         4.2192273489       10.3979681983        1.0919150387
  H         5.1038011567        9.4500163911        0.2510390003
  O        11.5788790298        0.7684114378        9.6061139978
  H        10.8282365921        0.7722444899        8.9720075276
  H        11.8852620930       -0.1626775848        9.5399106194
  O         6.8668223580        1.8779954201        3.1959565169
  H         6.4704465476        1.9991494937        2.3062994968
  H         6.1135398971        1.5151553742        3.6960723642
  O         6.8534484734        9.6613692056        3.2810829257
  H         6.2082966013       10.2292849174        2.8149539953
  H         7.3322840258       10.3169641681        3.8309386619
  O         5.5518308462        1.5107359756        6.0456509610
  H         5.0787978184        2.2234362441        6.5246793942
  H         5.3624962945        0.6843421228        6.5335017353
  O         7.9988138931        4.0880124041        9.9485628881
  H         8.5587163737        4.8425391866        9.7080656355
  H         7.2531531095        4.4994855841       10.4029868899
  O         0.8265035677       10.1001510156        0.5360157324
  H         1.3545820500       10.4685261228       -0.1917041685
  H         0.2139458630        9.5039031590        0.0658308543
  O         7.1465926494        8.5006180815       10.9741785739
  H         7.7597813062        8.9697480929       11.5943984481
  H         6.8588981279        7.6865588865       11.4310570325
  O         2.8432166554       10.0342036616        9.5524712254
  H         3.4254231577        9.3330285441        9.1923983984
  H         2.6350387974       10.5930973461        8.7851508289
  O        11.1352742976        3.1164054386        4.0130209815
  H        11.2874131313        3.8406802793        4.6591790516
  H        11.9278796117        2.5578768769        4.1342294412
  O         8.2961443432        2.1344129349        5.7729166429
  H         7.2948900951        2.0671271560        5.8318853979
  H         8.4708817967        2.3563794961        4.8304703084
  O         5.8181623687        6.9367818000        4.4345334329
  H         6.7720414509        7.1467940886        4.5216278463
  H         5.6996794878        6.0014990191        4.7726645537
  O         9.8978062049        1.5871768973        1.5633531646
  H         9.8319217256        1.8399174143        2.4928710153
  H        10.6264908893        0.9218870426        1.5673978126
  O         9.8330908278       10.3123833992       10.2722252947
  H        10.2290542174       10.5753269135       11.1275398466
  H         8.8821210080       10.5198327921       10.4385001233
  O         1.3279345859        4.5185107466        2.1785815193
  H         1.1081534462        3.6412459911        2.4971988557
  H         0.8344228557        5.1962019278        2.6875442442
  O         2.2889418649        3.7806306911        6.6227547739
  H         2.7849258903        2.9882791597        6.8978401087
  H         1.6632246995        3.8752773591        7.3725062260
  O         7.1908718490       11.6077995522       10.8408142934
  H         7.6143248744       12.4806209372       10.7633309034
  H         6.9141335027       11.5513828451       11.7727743049
  O        12.0888669484        8.5246970005        3.4351629184
  H        12.1512964799        7.8944670262        4.1511484757
  H        12.6719883067        8.1371061482        2.7370495673
  O         1.2033111893        2.3205527506       -0.0478777436
  H         1.7704887963        2.1098051533        0.7149279925
  H         0.2961404145        2.1780092140        0.2707783709
  O         5.4068609304        9.1289860792        6.2228028282
  H         5.8931277047        9.5148105718        5.4581233236
  H         5.5456107626        8.1567282777        6.0491742626
  O        11.3025333588        4.7017893459        9.4939933034
  H        12.1420346623        5.0604789725        9.0969693227
  H        10.6295976556        4.9719484631        8.7967067628
  O         3.2377851965        4.4275901389       11.9870864229
  H         3.5216249296        3.7031256133       12.5824246933
  H         2.3037897876        4.4831628156       12.2142534568
  O         2.6866133503        6.9003754943        7.8469811505
  H         2.3914962246        6.2366537080        7.1939480533
  H         3.3608869311        7.4039654070        7.3562401796
  O         3.6955784999       12.4323368106       10.9438258568
  H         4.2865179982       12.6122420914       10.1842371421
  H         3.9956349180       11.5510774060       11.2537533159
  O         4.5092544595        2.6829021459        1.7400539251
  H         3.8418103645        2.2605076437        2.3382659793
  H         4.6732247545        3.5229139904        2.2278392044
  O         0.2138906941        9.2181781298       10.2567579959
  H         1.1742928055        9.3680395955       10.0124038040
  H        -0.2895129894        9.8391975630        9.6950865596
  O         3.4491201876        8.6867927892        3.8438371842
  H         4.1130800292        7.8924361632        3.7246796461
  H         3.7549891677        8.9900632793        4.7639585672
  O         5.0867442142        4.4896169743        5.9196377376
  H         5.9317119253        4.4271010524        6.4259567148
  H         4.4109460753        4.6304858967        6.6263400257
  O         6.2166928282       11.3321830415        8.1899724655
  H         6.0878868495       11.3851820330        9.1380999097
  H         6.8107821704       10.5907465755        8.0453839191
  O        -0.2222805027       12.1921787484        2.1115789216
  H         0.4563091241       12.2753076697        2.8132705003
  H         0.0749232994       11.3994267479        1.6064336139
  O         8.8694750272        9.8681448699        0.6888053672
  H         9.5553922965        9.4198186374        1.2325539701
  H         8.3457841589       10.3869128052        1.3428753287
  O         9.2526758495        6.8588555649        9.5288608376
  H         9.7652643015        6.7017017445       10.3598677451
  H         8.5073162175        7.4559478807        9.8716074851
  O         1.5983362887        6.4324716571        4.9346314841
  H         2.2540653295        5.7595993116        4.9887243559
  H         1.9879715761        7.3081621485        4.9789560570
  O         1.3502807964        6.1715364639       10.2539516373
  H         0.5169584804        6.0767633808       10.7361550964
  H         1.2357529031        6.9515140839        9.6769164022
  O         5.9420545573        6.5960972208        8.1718645565
  H         6.7673626803        6.3814823467        7.6367757851
  H         5.6002930542        5.6702357637        8.4094407385
  O        11.5820601036        2.8401315889        7.1143244178
  H        10.7617481526        2.2590842860        6.8700779013
  H        11.4187734593        2.9439174025        8.1265207431
  O         4.2681849188        7.2697966401       10.7420911883
  H         4.8158678243        7.3842107454        9.9528461695
  H         3.4720336951        6.7579338741       10.4675972240
  O         8.2725079456        5.4532967622        5.2450831380
  H         9.0598701061        4.9013361182        5.3896367261
  H         7.9230029908        5.1015447720        4.3916873484
  O         4.3370336001        4.2676310821        9.0337325556
  H         4.0079298726        3.3794059057        9.2893315268
  H         4.0535601493        4.7945105413        9.7937580861
  O         1.2450708344        0.6044071569        6.4023861899
  H         0.6650506304        0.5637094535        5.6179093771
  H         0.8596202811        1.3146038161        6.9695143233
  O         7.6231474859        4.9317789431        2.5562885415
  H         8.2062459990        4.3196610492        2.0842074512
  H         7.6807963681        5.7343842226        2.0534634547
  O        10.6177228578        4.9920556891        1.6754280395
  H        10.9264093598        4.1434359381        2.0670899750
  H        10.3390688107        5.5341223686        2.4438665529
  O         1.3416828493        7.2175308285        1.5232370994
  H         0.9660044813        7.0009431051        0.6462967877
  H         2.0576950094        7.8469747317        1.3343788623
  O         9.1102192994        6.9166355563        0.2226416385
  H         8.8414774811        7.6783553937        0.8237570181
  H         9.9512675972        6.5463584387        0.7314712004
  O        11.3059395615        8.0198181954        7.9331391174
  H        10.3507794423        7.7905256423        7.9983893592
  H        11.6082299495        8.0679655169        8.8498512101
  O         9.2449213117       11.2184402358        7.6230484975
  H         9.5330693736       10.5010577937        8.2113105474
  H         9.0937891043       11.9871698179        8.2235230667
  O         6.0684511524        4.8533181681       -0.0398425612
  H         5.9524171148        3.8871922324       -0.0728746372
  H         5.2003540026        5.2199585912       -0.2748084860
  O        10.5338262462       11.0035527285        4.4806647117
  H        11.1041257885       11.0630093803        3.6937318270
  H         9.6572165104       11.2290796297        4.1372172619
  O         9.1659112651        8.5636712414        6.1489191551
  H         8.3138585151        8.6049259961        5.7278056688
  H         9.6598623364        9.3137805904        5.8177571003
  O         7.7183639387       12.0946398184        1.5592913227
  H         7.3271368088       12.5234388802        2.3572952027
  H         8.4195374109       12.7392242748        1.3087816979
  O         4.9792998197       12.0455152474        3.4526286345
  H         4.1338549395       11.9259510988        2.9839061732
  H         4.8487957732       11.6997914773        4.3500952888
     192
 i =       14, E =     -1102.0137158223
  O         3.9571057560        5.6235469907        2.7489919482
  H         3.0735439418        5.3785017823        2.3151276958
  H         4.6511419114        5.6008449751        2.0601300938
  O        12.1302183301       10.5827093845        7.3397490242
  H        11.6672208844        9.7276189511        7.4773836549
  H        11.4752913230       11.1329487211        6.8931321992
  O         1.8354033077       11.2242835884        4.1371760920
  H         1.7873307464       10.3531382228        3.7410410174
  H         2.6202397684       11.1493995948        4.7159657759
  O         1.6845269000        2.2433865750        3.9499419659
  H         2.1133201051        1.4603735603        4.3436366222
  H         1.8182458885        2.8859042991        4.6999835937
  O         8.8096764409        1.5080466475        8.4086641679
  H         8.4762100690        1.4282014784        7.5019720639
  H         8.4437843434        2.3733747865        8.8172249355
  O         9.3508720270        7.6232865543        3.1734179671
  H        10.2043916936        8.0574073980        3.3470743435
  H         9.1877169162        7.0092343459        3.8968425810
  O         2.1934720316        2.1606716355        9.3901489440
  H         2.3994519491        1.2529320656        9.7073649808
  H         1.6762144870        2.5120196170       10.1419887326
  O         7.7045379462       11.5197645208        5.3078155844
  H         7.7568270830       12.4925074812        5.1773469483
  H         8.1643704274       11.3276984041        6.1322913956
  O         1.9020895759        9.1683489839        6.3789882140
  H         1.2233647065        9.8280340414        6.2011294520
  H         1.5131640127        8.5680381001        7.0178513620
  O         3.6924985060       11.9214096880        6.9082862602
  H         2.6887919480       11.8481898626        6.8254313525
  H         4.0653225729       11.0094734166        7.1223926691
  O        11.0340978826        6.1335644086        5.4031930088
  H        10.3411835863        6.6568544383        5.8377222153
  H        11.8505965992        6.3212286663        5.9007243762
  O         3.0768619831        0.2392844917        1.3785234333
  H         3.6028610414        0.4768482477        0.5673715075
  H         2.1807973022        0.0541643461        1.0303009909
  O         5.6709186705        7.7498412730        1.2513577344
  H         4.8314649796        7.4917456280        1.6885487459
  H         6.2380247138        8.0851017843        2.0067644008
  O         4.7647935391       10.3465256032        0.2934279030
  H         4.2174322435       10.4079310227        1.0861605052
  H         5.0739692962        9.4640219493        0.2108714978
  O        11.5864765523        0.7504259291        9.5938527596
  H        10.8088813294        0.7841816117        8.9866144387
  H        11.8758021514       -0.1583394835        9.5468903263
  O         6.8611781858        1.8752607249        3.1986015481
  H         6.4603779356        2.0095568064        2.3150877875
  H         6.1008618774        1.5239250652        3.7024123617
  O         6.8440111556        9.6632682762        3.2953817890
  H         6.2080100946       10.2364682740        2.8259543669
  H         7.3400696294       10.3277385995        3.8357574709
  O         5.6064496226        1.5340051774        6.0313105068
  H         5.0903482072        2.2259743177        6.5070883961
  H         5.3135901502        0.6647201079        6.5626105582
  O         7.9804289883        4.0400576416        9.8875860851
  H         8.5660963660        4.9083851345        9.7154268218
  H         7.2455651230        4.4732163281       10.4403754923
  O         0.8294037108       10.1178881336        0.5408782682
  H         1.3652605498       10.4710042909       -0.1970261922
  H         0.2261485974        9.5127946246        0.0459789559
  O         7.1418460259        8.4940182215       10.9642791547
  H         7.7568446537        8.9591525072       11.5737538792
  H         6.8586231768        7.7019032444       11.4497159226
  O         2.8433487875       10.0214023026        9.5462326256
  H         3.4207451174        9.3106373110        9.2093904386
  H         2.6489974068       10.5913147946        8.7792709552
  O        11.1430481650        3.1060102108        4.0246104609
  H        11.2785432544        3.8471022117        4.6674493437
  H        11.9269402950        2.5521890924        4.1343485273
  O         8.2848661295        2.1439566070        5.7688774619
  H         7.2938145087        2.0507882195        5.8377223522
  H         8.4617972086        2.3317644471        4.8404408684
  O         5.8272805199        6.9222080532        4.4493752773
  H         6.7659852970        7.1418626448        4.5239405068
  H         5.6901717925        6.0159527963        4.7800882164
  O         9.9057676572        1.5544356265        1.5703797222
  H         9.8456200241        1.8630767311        2.5071104564
  H        10.6497382012        0.9155230579        1.5877860388
  O         9.8250194553       10.3086029147       10.2850104402
  H        10.2229058780       10.5757254174       11.1213829585
  H         8.8776244824       10.5238280296       10.4297005559
  O         1.3291697180        4.5428366197        2.1453442256
  H         1.1149909166        3.6679209450        2.5512138705
  H         0.8589044037        5.1577113164        2.6665256064
  O         2.2865970096        3.7696706213        6.6151985186
  H         2.7818627672        2.9800788817        6.8994961955
  H         1.6529877125        3.8671735253        7.3549591149
  O         7.2209549472       11.6334521524       10.8462132174
  H         7.6236166980       12.4984523658       10.7535427686
  H         6.8778681971       11.5463713322       11.8047785591
  O        12.0943047545        8.5325483525        3.4416002168
  H        12.1184139098        7.8432120813        4.1768599775
  H        12.7047544360        8.1709761379        2.6947789330
  O         1.1920541875        2.3024944274       -0.0525183667
  H         1.7598939283        2.0970780153        0.7110795788
  H         0.2757948172        2.1769950786        0.2641011744
  O         5.4515320831        9.1059555586        6.2102453889
  H         5.8814067203        9.5341698399        5.4515740255
  H         5.5065310132        8.1881492860        6.0355896346
  O        11.3188168420        4.7695005998        9.4665680539
  H        12.1333230296        5.0327052664        9.0820181037
  H        10.6357421674        4.9615196993        8.8352842048
  O         3.2354603144        4.4047596294       12.0180692094
  H         3.5361645017        3.6984917088       12.5593895232
  H         2.2914342321        4.5015839464       12.2086072400
  O         2.7011908321        6.8947458113        7.8410296336
  H         2.3905361618        6.2403605983        7.2139753974
  H         3.3861416302        7.4173552718        7.3723713190
  O         3.7179658373       12.4271667431       10.9475919424
  H         4.2835871738       12.6232207972       10.1842655356
  H         4.0051863263       11.5476138646       11.2604213971
  O         4.4552900057        2.7225086687        1.7586331136
  H         3.8608362293        2.2390226103        2.2947912891
  H         4.6922001848        3.5329283566        2.2243301747
  O         0.2192796765        9.2142652640       10.2530403005
  H         1.1742702524        9.3766282868       10.0084001350
  H        -0.2984929619        9.8468959130        9.7100684328
  O         3.5935286164        8.6901217588        3.8523028755
  H         4.0043770501        7.8965413785        3.7456733418
  H         3.7020939704        8.9654954838        4.7329442552
  O         5.0809124730        4.4630765173        5.9354608875
  H         5.9436691746        4.4382466997        6.4193120408
  H         4.4101822148        4.6450051809        6.6110187275
  O         6.1824202318       11.3329503472        8.1796791752
  H         6.1332131777       11.3765523388        9.1762390357
  H         6.8117336139       10.5986839766        8.0266234503
  O        -0.2001283131       12.1912314854        2.1081815554
  H         0.4487365755       12.2885541782        2.8157522645
  H         0.0687882429       11.3992409314        1.5925249993
  O         8.8808559886        9.8412973172        0.6933709542
  H         9.5616424149        9.4229845616        1.2394345295
  H         8.3403899749       10.4075242721        1.3203494401
  O         9.2319107804        6.8529375972        9.5340522992
  H         9.7440206222        6.7086270091       10.3565607214
  H         8.5199493059        7.4476061755        9.8589278145
  O         1.5154962049        6.4218038157        4.9637390598
  H         2.3038989263        5.7498126123        4.9718855678
  H         2.0192098102        7.3307203901        4.9547087526
  O         1.3316488835        6.1750716260       10.2523403151
  H         0.4943972808        6.0723445963       10.7334635920
  H         1.2478061628        6.9508141892        9.6774902608
  O         6.0315792597        6.5114712408        8.2237067358
  H         6.7012518432        6.4106498792        7.6364697756
  H         5.5794424068        5.7303664977        8.3966548686
  O        11.5001868636        2.8142363838        7.1596278392
  H        10.8392509929        2.2663380898        6.8742479565
  H        11.4423182449        2.9539322916        8.0914176490
  O         4.2672455392        7.2740567048       10.7298711220
  H         4.8382325060        7.4207927592        9.9321172883
  H         3.4473242723        6.7264920190       10.4772848402
  O         8.2588787547        5.4307630709        5.2563495002
  H         9.0633042479        4.9027571505        5.4254077759
  H         7.9261314266        5.1004064117        4.3465295865
  O         4.3548132149        4.2728837477        9.0230224946
  H         3.9930566971        3.3868953703        9.2732676665
  H         4.0257170851        4.7961831313        9.8056270178
  O         1.2488170488        0.6110211167        6.3989015699
  H         0.6337706420        0.5536031329        5.6300206704
  H         0.8463375525        1.3030371962        6.9857085501
  O         7.6407010652        4.9313212721        2.6169840299
  H         8.2069335549        4.2975962053        2.0785153644
  H         7.6332290610        5.7629328120        1.9861989751
  O        10.6452509153        5.0035669034        1.6930468265
  H        10.9226049628        4.1554984981        2.0679633601
  H        10.3401723519        5.5328643396        2.4529478451
  O         1.3422415249        7.2192407454        1.5066816402
  H         0.9600339991        6.9952735751        0.6497353498
  H         2.0585513126        7.8687000308        1.3421167703
  O         9.1249860222        6.8935555804        0.2755007868
  H         8.8154581666        7.6372350409        0.7688524618
  H         9.9484328605        6.5411264486        0.7095862983
  O        11.3197418012        8.0451765140        7.8876913043
  H        10.3588342867        7.7889135524        8.0271197889
  H        11.6305290470        8.0126803083        8.8789366453
  O         9.2397405830       11.2250142983        7.5879629988
  H         9.5251647488       10.5144084131        8.2388778276
  H         9.0719926424       11.9648850877        8.2030936458
  O         6.0810385969        4.8723289639       -0.0666739372
  H         5.9550139718        3.9059311936       -0.0665892420
  H         5.1947515910        5.2255386552       -0.3003636690
  O        10.5457436825       11.0048600098        4.4878953057
  H        11.1163344265       11.0446508398        3.6968604212
  H         9.6457265973       11.2482603589        4.1723395997
  O         9.1668318840        8.5565215444        6.1880699361
  H         8.3068069347        8.5971977896        5.7103305619
  H         9.6888380083        9.3282841766        5.7793142622
  O         7.7171860374       12.0893545004        1.5432012935
  H         7.3069528469       12.5375664504        2.3350129662
  H         8.4351527842       12.7433824702        1.3214950344
  O         4.9729126904       12.0471697338        3.4363397077
  H         4.1161945857       11.9292059902        2.9729521962
  H         4.8406152320       11.7216582080        4.3596462291
     192
 i =       15, E =     -1102.0771837651
  O         3.9446457798        5.6298908631        2.7374384936
  H         3.1032861276        5.3596640700        2.3299102788
  H         4.6390824942        5.6002159152        2.0525348916
  O        12.1503278820       10.5745114717        7.3384458250
  H        11.6728804464        9.7199914508        7.4829541844
  H        11.4536240639       11.1338886247        6.9029479778
  O         1.8238023321       11.2369764790        4.1488595563
  H         1.7871376637       10.3541782291        3.7292727815
  H         2.6179205671       11.1534272508        4.7258887293
  O         1.6859454989        2.2460458448        3.9573570661
  H         2.1023844015        1.4434223275        4.3363662021
  H         1.8226357589        2.8932437542        4.7039201045
  O         8.8185322335        1.4985446638        8.4381751509
  H         8.4854292791        1.4658182440        7.5048268502
  H         8.4421977775        2.3438304429        8.8172276443
  O         9.3482972467        7.6078182546        3.1460212823
  H        10.2168190085        8.0547430574        3.3636582039
  H         9.2014159631        7.0122270509        3.9122442899
  O         2.1888040076        2.1535204574        9.3882138726
  H         2.4076391381        1.2647083284        9.7067404719
  H         1.6891912789        2.5171368972       10.1349442418
  O         7.7009895080       11.5163724878        5.2760403939
  H         7.7633907470       12.4840786530        5.1891884048
  H         8.1517102246       11.3463366929        6.1564663328
  O         1.9289536820        9.1567419043        6.3411220644
  H         1.2005215850        9.8345393930        6.2137449138
  H         1.5247172493        8.5629599595        7.0564268576
  O         3.6776051816       11.8987107039        6.9265477962
  H         2.7009727800       11.8588901157        6.8157343781
  H         4.0567611701       11.0225681438        7.1034577761
  O        11.0284024271        6.1210835907        5.3987404160
  H        10.3435679440        6.6916877962        5.8395608304
  H        11.8518874857        6.3187082842        5.8868921156
  O         3.0746602442        0.2435606520        1.3813272693
  H         3.6001281793        0.4664969587        0.5693304776
  H         2.1860184533        0.0475289987        1.0355817457
  O         5.6768049783        7.7585331504        1.2510513599
  H         4.8408677934        7.4827367413        1.6904800186
  H         6.2388878735        8.0895798686        2.0018703841
  O         4.7367314567       10.3662827382        0.2535878280
  H         4.2178048625       10.4093915282        1.0853119429
  H         5.0927607956        9.4413826342        0.2267251422
  O        11.5746578594        0.7530799958        9.6026603812
  H        10.7952384558        0.7876152736        9.0042435820
  H        11.8873392397       -0.1683486019        9.5240500422
  O         6.8608133226        1.8720418308        3.1948805825
  H         6.4466048517        2.0209006455        2.3137104102
  H         6.0885558295        1.5337054282        3.7031581560
  O         6.8471521704        9.6765861841        3.3036450843
  H         6.2054991492       10.2399437537        2.8277388476
  H         7.3432974118       10.3242620778        3.8476726388
  O         5.5583479359        1.4991513671        6.0504445106
  H         5.1014838397        2.2358173592        6.4936300568
  H         5.3558318890        0.6890392870        6.5556329318
  O         7.9967239149        4.0810571170        9.9160010063
  H         8.5440432377        4.8657573429        9.7024388608
  H         7.2356161302        4.4701810438       10.4174903822
  O         0.8301374919       10.1192313324        0.5287788950
  H         1.3763968508       10.4727279973       -0.1987656143
  H         0.2300147329        9.5266748449        0.0449839956
  O         7.1430307510        8.4918350451       10.9398525523
  H         7.7545172496        8.9456365588       11.5739156247
  H         6.8459252811        7.7147111136       11.4699748271
  O         2.8388511357       10.0130160272        9.5486446678
  H         3.4250494597        9.3016924754        9.2191402446
  H         2.6628420321       10.5887337986        8.7659982359
  O        11.1358350805        3.1014426264        4.0324865867
  H        11.2760170774        3.8396932631        4.6649096288
  H        11.9362667937        2.5557220877        4.1514071854
  O         8.2844353049        2.1366838142        5.7757440747
  H         7.2945447355        2.0406158514        5.8480213867
  H         8.4626451270        2.3309096570        4.8450200304
  O         5.8180306189        6.9246157631        4.4616439939
  H         6.7717437168        7.1281805592        4.5221840679
  H         5.6895257499        6.0191580725        4.7900596312
  O         9.9100763970        1.5421756240        1.5763320719
  H         9.8593391704        1.8684644727        2.5115874984
  H        10.6594921423        0.9091867892        1.6077801139
  O         9.8204072483       10.3142043071       10.2793272747
  H        10.2215272260       10.5659489891       11.1291258136
  H         8.8738149666       10.5283726371       10.4258111503
  O         1.3585257219        4.5302619963        2.1460066435
  H         1.1235467293        3.6556312000        2.5687115265
  H         0.8358156424        5.1956920499        2.6484397463
  O         2.2863819371        3.7597201417        6.6112082225
  H         2.7826363245        2.9760043840        6.9015050636
  H         1.6455421673        3.8617686752        7.3422056445
  O         7.1804107402       11.6392376020       10.8646674704
  H         7.6394718706       12.4993342044       10.7699853499
  H         6.9015258918       11.5645223670       11.7862411615
  O        12.1066082762        8.5448757815        3.4299780770
  H        12.1496957154        7.8492520236        4.1480111051
  H        12.6631615700        8.1421112791        2.7236205098
  O         1.1833967301        2.2913012410       -0.0560628631
  H         1.7504165149        2.0881141941        0.7071854459
  H         0.2661649655        2.1751266161        0.2614036841
  O         5.4310929182        9.1288692820        6.1988508287
  H         5.8818386939        9.5399455236        5.4391398660
  H         5.5281372566        8.1738660193        6.0413137479
  O        11.3154095357        4.7599612326        9.4571852108
  H        12.1570631311        5.0524953001        9.0903238807
  H        10.6284158344        4.9743995650        8.8356728192
  O         3.2293115316        4.4022894499       11.9689622421
  H         3.5477721809        3.6978924621       12.6021730885
  H         2.2799845182        4.5035588440       12.2141738658
  O         2.7006379298        6.9110551310        7.8560609029
  H         2.4113053525        6.2391377954        7.2096284228
  H         3.3904641265        7.4122504653        7.3785485724
  O         3.7158364055       12.4265624264       10.9507490031
  H         4.2887457617       12.6265963876       10.1913945439
  H         4.0235967457       11.5415932114       11.2586752135
  O         4.4832792976        2.7229040185        1.7526946579
  H         3.8347677034        2.2375720402        2.2758838186
  H         4.6819619817        3.5471376706        2.2294651311
  O         0.2168884559        9.2126202352       10.2588301452
  H         1.1687621149        9.3859211961       10.0017652451
  H        -0.2999773613        9.8460084551        9.7205267787
  O         3.5462128883        8.6819077209        3.8511943605
  H         4.0299265020        7.8849486968        3.7363131698
  H         3.7052296142        8.9794842469        4.7382066337
  O         5.0807733933        4.4551754629        5.9292148485
  H         5.9356894898        4.4447160032        6.4125708314
  H         4.4200206078        4.6475161119        6.6171663217
  O         6.1733572481       11.3338369429        8.1740320761
  H         6.1610843751       11.3691202005        9.1927432863
  H         6.8152946419       10.6030662459        8.0202155104
  O        -0.2010449298       12.2019254606        2.1103524000
  H         0.4540498096       12.2787778362        2.8262495632
  H         0.0685874807       11.4112197435        1.5704499838
  O         8.8867354883        9.8319893416        0.6863410017
  H         9.5557721277        9.4170754777        1.2551295480
  H         8.3485150288       10.4192687597        1.3040173232
  O         9.2230091651        6.8495965572        9.5446983660
  H         9.7343445787        6.7105910315       10.3544288540
  H         8.5220884957        7.4415824032        9.8425959940
  O         1.5903789265        6.4326788205        4.9440082190
  H         2.2688341587        5.7708387120        4.9721994579
  H         1.9800033814        7.2976099951        4.9639790636
  O         1.3362360582        6.1710130845       10.2564904739
  H         0.4795249634        6.0724746676       10.7192428536
  H         1.2387102125        6.9511175790        9.6810409439
  O         5.9736547947        6.5450930888        8.2105163401
  H         6.7626099915        6.4205087269        7.6579185095
  H         5.5770490584        5.6963226360        8.4174138940
  O        11.6052914201        2.8183397854        7.1336155581
  H        10.7412468757        2.2558631457        6.8602098030
  H        11.4404316130        2.9571667517        8.1360672671
  O         4.2619135826        7.2553361264       10.7393639951
  H         4.8103425742        7.3948421669        9.9323573943
  H         3.4786632906        6.7795679338       10.4549728029
  O         8.2508402417        5.4273631366        5.2391120335
  H         9.0624233849        4.8994488005        5.4393100397
  H         7.9317007905        5.0877297501        4.3529926891
  O         4.3354605272        4.2735252179        9.0322665037
  H         3.9876392585        3.3912213371        9.2680113586
  H         4.0291658940        4.7995230831        9.7912972676
  O         1.2408044211        0.6303669050        6.4025828394
  H         0.6401293440        0.5309669866        5.6588584817
  H         0.8216930342        1.2963502727        6.9716348248
  O         7.6167255095        4.9268650901        2.5670143904
  H         8.2020781744        4.3231777229        2.0978559585
  H         7.6327328008        5.7423161387        2.0041141446
  O        10.6586891677        5.0119392306        1.6968289745
  H        10.9317386798        4.1624302676        2.0722586461
  H        10.3431197391        5.5363810478        2.4550023117
  O         1.3401030573        7.2310876171        1.5158866677
  H         0.9706178523        6.9902809791        0.6458461634
  H         2.0481277706        7.8759015086        1.3376878293
  O         9.1297629684        6.8497780430        0.2840556859
  H         8.8418846923        7.6223873092        0.7688019758
  H         9.9121116232        6.5509563624        0.6907288653
  O        11.3284634141        7.9935592778        7.9242775718
  H        10.3714554923        7.7997151206        8.0279495873
  H        11.6372680371        8.0313499046        8.8446636844
  O         9.2301302965       11.2180730165        7.6011813464
  H         9.5173362600       10.5117280387        8.2149848186
  H         9.0643959990       11.9714209209        8.1946630431
  O         6.0891313986        4.8839143236       -0.0807432136
  H         5.9599231218        3.9186232725       -0.0636256794
  H         5.2001525708        5.2317703076       -0.3179158916
  O        10.5524514521       11.0063919789        4.4946640285
  H        11.1207916204       11.0321650090        3.7031312343
  H         9.6476526679       11.2590202773        4.1891168885
  O         9.1781487753        8.5707733597        6.1577540526
  H         8.3187869760        8.5977722929        5.7100562217
  H         9.6794253437        9.3139408058        5.7948575512
  O         7.6989710681       12.1151179125        1.5382286191
  H         7.3116645935       12.5326638299        2.3221021774
  H         8.4393589339       12.7276145204        1.3147137874
  O         4.9633978541       12.0525263528        3.4424336424
  H         4.1182311502       11.9384235107        2.9666393763
  H         4.8261400262       11.7264967990        4.3523276990
     192
 i =       16, E =     -1101.9747748938
  O         3.9622918856        5.6125865253        2.7732617808
  H         3.1095653065        5.3585188859        2.3097908411
  H         4.6312780529        5.5840406996        2.0353347778
  O        12.1197837713       10.5514607331        7.3430255858
  H        11.6990424633        9.7044565907        7.5016670111
  H        11.4819582595       11.1137968393        6.9082109663
  O         1.8324510915       11.2408075250        4.1751917095
  H         1.7742764524       10.3641289489        3.7139361154
  H         2.5822405896       11.1845503214        4.7581544224
  O         1.7015453765        2.2681627796        3.9831242157
  H         2.0792343992        1.3972519053        4.3227878666
  H         1.8078757009        2.8996295269        4.7124904391
  O         8.7998422173        1.4830607411        8.5009289006
  H         8.5112274229        1.5107205121        7.5141359016
  H         8.4506217632        2.2920344460        8.8195685072
  O         9.3769991351        7.5888052424        3.1519323024
  H        10.2352597773        8.0299538825        3.3546924385
  H         9.2222882597        7.0092036328        3.9336492173
  O         2.2148013481        2.1782715274        9.3795028100
  H         2.4063149775        1.2655485433        9.6852823676
  H         1.7013415112        2.5123647573       10.1512366948
  O         7.7094978269       11.5186753154        5.2694269469
  H         7.7615690773       12.4939475710        5.1910763944
  H         8.1429619798       11.3548995393        6.1669509762
  O         1.8891993146        9.1674846718        6.4064814963
  H         1.2152718257        9.8013320724        6.2305367065
  H         1.5838545873        8.5520834336        6.9991821195
  O         3.6574121376       11.8846447275        6.9199131739
  H         2.6997581026       11.8855399391        6.8007216794
  H         4.0366587137       11.0239036217        7.0981193880
  O        11.0109340677        6.1387356239        5.3914089793
  H        10.3436678935        6.7261604543        5.8353166940
  H        11.8616807093        6.3146700468        5.8557181289
  O         3.0821626120        0.2540093170        1.3752030581
  H         3.6088409918        0.4471481104        0.5739553211
  H         2.1976849950        0.0344198211        1.0475846723
  O         5.6898993176        7.7855161182        1.2620353888
  H         4.8713496840        7.4740538400        1.7058578828
  H         6.2324433735        8.0790706826        1.9899109551
  O         4.7033238316       10.3575548275        0.2230700478
  H         4.2022415447       10.3988870296        1.0598060918
  H         5.0900908689        9.4197115970        0.2358432231
  O        11.5577820776        0.7548566685        9.6200507807
  H        10.7626366234        0.7852477736        9.0463749642
  H        11.8953306473       -0.1821662287        9.4819486587
  O         6.8478619812        1.8599082023        3.1945547868
  H         6.4200063383        2.0407795168        2.3139137632
  H         6.0699527514        1.5395672237        3.7061516762
  O         6.8493726869        9.6933120464        3.3199332557
  H         6.2103585451       10.2542728063        2.8384869443
  H         7.3473402182       10.3404348344        3.8568197713
  O         5.5667755152        1.4820942079        6.0604047349
  H         5.1064965997        2.2532991633        6.4657628493
  H         5.3644249771        0.7011355093        6.5763538031
  O         8.0032950388        4.0939397624        9.9299615806
  H         8.5044023822        4.8486441266        9.6976212753
  H         7.2445480134        4.4419617173       10.3738483371
  O         0.8262387165       10.1547989868        0.5277849458
  H         1.4028685269       10.4843716683       -0.2097039175
  H         0.2431740434        9.5294537902        0.0196481665
  O         7.1500361760        8.4925552195       10.9212544802
  H         7.7670737457        8.9503478923       11.5553698308
  H         6.8224593008        7.7300730579       11.4770795065
  O         2.8325160506        9.9974508121        9.5548488757
  H         3.4421081679        9.2856936014        9.2392845750
  H         2.6849990884       10.5712410137        8.7582839307
  O        11.1287752700        3.0870740628        4.0271074472
  H        11.2524708588        3.8286403598        4.6662617818
  H        11.9602707001        2.5503566011        4.1836863554
  O         8.2780070895        2.0871633927        5.8053925146
  H         7.2810414879        2.0131636254        5.8591766871
  H         8.4581305555        2.3415220401        4.8571837229
  O         5.7964114014        6.9507418398        4.4953802255
  H         6.7818374804        7.1119898543        4.5288790080
  H         5.7003053203        5.9901891849        4.8021345104
  O         9.9329848617        1.5391853579        1.6046586816
  H         9.8810970431        1.8524109291        2.5152214873
  H        10.6745505164        0.8869143636        1.6562574913
  O         9.8102969627       10.3286998649       10.2544855277
  H        10.2070226751       10.5415309441       11.1441290114
  H         8.8624107638       10.5417253080       10.4278420933
  O         1.3735226455        4.5070648994        2.1636754010
  H         1.1806393038        3.6469089386        2.5646463046
  H         0.8299160756        5.2376720417        2.6369487981
  O         2.2941015208        3.7525663086        6.6027100350
  H         2.7795056281        2.9646816908        6.9051740173
  H         1.6317951242        3.8457549046        7.3191890439
  O         7.1969800112       11.6453908888       10.8537174775
  H         7.6592771435       12.5094458419       10.8072178330
  H         6.8740953589       11.6106657028       11.7927298413
  O        12.0974828437        8.5159922206        3.4312177857
  H        12.2174286807        7.8928627656        4.1021873069
  H        12.6161457528        8.1114604730        2.7336799753
  O         1.1649488233        2.2688562734       -0.0693935143
  H         1.7221638150        2.0645103033        0.7032659649
  H         0.2525991667        2.1698692404        0.2556611995
  O         5.3897972560        9.1782504835        6.1843236304
  H         5.8830212609        9.5348485032        5.4040491750
  H         5.5799391260        8.1695818348        6.0354033155
  O        11.3021548936        4.6723981177        9.4807578396
  H        12.1752930378        5.1138826536        9.1157830714
  H        10.6281232288        5.0499704425        8.7830313308
  O         3.2211076906        4.3940257402       11.9774096013
  H         3.5435416787        3.7141213309       12.6091492365
  H         2.2851337183        4.4769972820       12.2102123083
  O         2.7074189348        6.9334394878        7.8746233551
  H         2.4499701430        6.2452056064        7.2075213096
  H         3.4057022913        7.4111165817        7.3931522303
  O         3.7038941670       12.4291508163       10.9538410102
  H         4.3026145115       12.6374622006       10.2033884891
  H         4.0547783721       11.5376413851       11.2490723766
  O         4.5540772544        2.7147277771        1.7115134670
  H         3.7800579083        2.2636260145        2.2421529642
  H         4.6442300670        3.5584840279        2.2411218767
  O         0.2142957805        9.2065548247       10.2621656549
  H         1.1643746904        9.4093299696        9.9882936403
  H        -0.3127260097        9.8415015067        9.7363779696
  O         3.3320152270        8.6583911329        3.8288462415
  H         4.1509461408        7.8647194902        3.7167748077
  H         3.7583067753        9.0007606073        4.7625799593
  O         5.0704338201        4.4486441140        5.9167070602
  H         5.9263776654        4.4636797011        6.3904026861
  H         4.4287477163        4.6465875078        6.6457494495
  O         6.2155700240       11.3311074967        8.2273032888
  H         6.1572325556       11.3793518971        9.1836225755
  H         6.8019344928       10.5897316108        8.0219532751
  O        -0.2177317080       12.2281222510        2.0988322918
  H         0.4636455618       12.2448958200        2.8337447767
  H         0.0745501181       11.4533908969        1.5417570535
  O         8.8912478283        9.8521865929        0.6752040497
  H         9.5273289508        9.3986046051        1.2934343396
  H         8.3634669977       10.4240424823        1.2715109213
  O         9.2622615506        6.8491938360        9.4944224891
  H         9.7377262754        6.7026158609       10.3841760114
  H         8.4519095906        7.4229505537        9.8353102875
  O         1.5265150038        6.4094394959        5.0012783587
  H         2.3201929917        5.7484089201        4.9619123179
  H         1.9901222044        7.3470571391        4.9215071883
  O         1.3380386094        6.1655443141       10.2593304730
  H         0.4578888546        6.0774491056       10.6907650002
  H         1.2211321511        6.9573134693        9.6854215076
  O         5.8654306380        6.6448664908        8.1845604629
  H         6.8283155453        6.4112525188        7.7097792400
  H         5.6210211505        5.6132393647        8.4588065933
  O        11.5175813459        2.8052479004        7.1781539073
  H        10.8402382968        2.2833460370        6.9146290828
  H        11.4696097977        2.9408835311        8.0833042968
  O         4.2696594462        7.3005672838       10.7191999441
  H         4.7750168116        7.3605453150        9.9288681532
  H         3.4960444114        6.7963420701       10.4345070856
  O         8.2488959387        5.4186879384        5.2410693495
  H         9.0398738822        4.9024571560        5.4493439229
  H         7.9710974642        5.0672432797        4.3616856259
  O         4.3441809815        4.2948517190        9.0312268348
  H         3.9542536256        3.3960156915        9.2349869817
  H         4.0174100918        4.8123547622        9.7896364618
  O         1.2364938182        0.6356160548        6.3871546993
  H         0.6080610554        0.4992835041        5.6785501125
  H         0.8020070018        1.2723981019        6.9877751879
  O         7.5815365063        4.9396349658        2.5447817885
  H         8.1803166386        4.3526146602        2.0737197267
  H         7.6364257529        5.7211451700        2.0269116390
  O        10.6654508995        5.0210849757        1.6959051057
  H        10.9659030646        4.1670252601        2.0895497733
  H        10.3478772330        5.5492671697        2.4563476326
  O         1.3243570260        7.2491640814        1.5297057381
  H         0.9857069154        6.9829363293        0.6335217805
  H         2.0184828096        7.8920288291        1.3346999805
  O         9.0756495334        6.8844433627        0.1341332376
  H         8.8592175416        7.6670464682        0.8080925678
  H         9.9232468609        6.3785273147        0.7621068345
  O        11.3495994402        7.9612835614        7.9458916341
  H        10.3921585851        7.8042720945        8.0365363440
  H        11.6829790595        8.0248707448        8.8244364575
  O         9.2357470103       11.1934724460        7.6081313002
  H         9.5123317418       10.4965368403        8.1898567799
  H         9.0286139559       12.0020438976        8.1675337423
  O         6.0828892845        4.9131704939       -0.1167202000
  H         5.9658849851        3.9408628562       -0.0609278342
  H         5.2027569821        5.2598617101       -0.3567659914
  O        10.5653164580       11.0154112034        4.5256672492
  H        11.1154725524       11.0148091909        3.7121206379
  H         9.6844018110       11.2709883305        4.2142197978
  O         9.1865126881        8.5640255298        6.1823562359
  H         8.3314162221        8.6050273774        5.7064723052
  H         9.6815867360        9.3176785736        5.7605423296
  O         7.7136889777       12.1205146468        1.5235955241
  H         7.2820328665       12.5598029517        2.2951940354
  H         8.4594329439       12.7206522207        1.3034553558
  O         4.9400874837       12.0613433096        3.4323796958
  H         4.1077870956       11.9481858854        2.9411540940
  H         4.7960835673       11.7480569515        4.3338939456
     192
 i =       17, E =     -1102.1017942190
  O         3.9583876584        5.6277422224        2.7252125926
  H         3.1123932502        5.3560508237        2.3241292090
  H         4.6454005028        5.5779599306        2.0511071420
  O        12.1424848153       10.5734176749        7.3431348638
  H        11.6699044488        9.7062612503        7.5090248210
  H        11.4694221913       11.1258347633        6.9007011563
  O         1.8286621614       11.2419786613        4.1489825939
  H         1.7738040570       10.3645686584        3.7279791756
  H         2.5868136724       11.1777884161        4.7411238777
  O         1.7043602037        2.2650406354        3.9640683544
  H         2.0787411101        1.4237180602        4.3270614023
  H         1.8145588447        2.8861808165        4.7116197673
  O         8.8257531409        1.5024348045        8.4572309850
  H         8.5201994511        1.4819125711        7.5244505150
  H         8.4446978313        2.3300590593        8.8584691169
  O         9.3704832937        7.5981564139        3.1611743072
  H        10.2234375988        8.0359860666        3.3337966227
  H         9.2163554251        7.0085904707        3.9185150739
  O         2.2226183450        2.1813064760        9.3762695160
  H         2.4048554703        1.2603802731        9.6850762837
  H         1.7015029659        2.5184833124       10.1440185667
  O         7.7038869343       11.5256048635        5.2916805783
  H         7.7615466527       12.5011183141        5.1994997238
  H         8.1410963008       11.3301892732        6.1380439313
  O         1.9378610484        9.1614114511        6.3399371790
  H         1.1740752403        9.8298675601        6.2383452628
  H         1.5785751444        8.5496606609        7.0619342730
  O         3.6811143673       11.8964715802        6.9026261037
  H         2.6986352429       11.8815302484        6.8079419550
  H         4.0398648299       10.9977688036        7.1032036209
  O        11.0129524780        6.1583520215        5.3891387598
  H        10.3537731758        6.7087385824        5.8441975343
  H        11.8605077537        6.3059782607        5.8571250501
  O         3.0668603364        0.2590414512        1.3824598865
  H         3.5979734213        0.4420746339        0.5763239286
  H         2.1835456443        0.0299520765        1.0489184525
  O         5.6826136938        7.7731839626        1.2546718478
  H         4.8744071160        7.4919126938        1.6981358234
  H         6.2366871594        8.0895006517        1.9892322297
  O         4.7349568895       10.3571362436        0.2415796592
  H         4.2149557179       10.4112213959        1.0564625143
  H         5.0848364838        9.4457518350        0.2137046292
  O        11.5805994560        0.7489325730        9.6020618434
  H        10.7721241925        0.7882121666        9.0392517021
  H        11.8743621741       -0.1686101140        9.4980118701
  O         6.8384026515        1.8801610171        3.1912523158
  H         6.4234446799        2.0388939861        2.3193220501
  H         6.0860984684        1.5496393997        3.7095099657
  O         6.8388472653        9.6769793793        3.3221607699
  H         6.2102599109       10.2530781616        2.8503317770
  H         7.3446687579       10.3308354867        3.8581328995
  O         5.5891163615        1.4956584471        6.0424383139
  H         5.1084939546        2.2440556423        6.4601193486
  H         5.3382895652        0.6888517492        6.5900503817
  O         7.9851969076        4.0590934947        9.9002877443
  H         8.5162380547        4.9026824845        9.7084580832
  H         7.2339445714        4.4388674575       10.4109789659
  O         0.8423217928       10.1247956339        0.5057168551
  H         1.3934594881       10.4869139834       -0.1936997045
  H         0.2447041412        9.5408758659        0.0281059120
  O         7.1271491426        8.4730597838       10.9513706149
  H         7.7541394676        8.9469391763       11.5447208592
  H         6.8358507788        7.7140196365       11.4747339453
  O         2.8419640478       10.0054425472        9.5415571224
  H         3.4305234714        9.2886474440        9.2266031305
  H         2.6699456266       10.5617131091        8.7674343612
  O        11.1396330672        3.0963214179        4.0439410628
  H        11.2701615052        3.8354715939        4.6816026759
  H        11.9397787495        2.5518687394        4.1675514261
  O         8.2815366953        2.1098554157        5.7980037634
  H         7.2874822988        2.0261369516        5.8544094368
  H         8.4574825288        2.3351510625        4.8558885754
  O         5.8159791386        6.9250887040        4.4808827268
  H         6.7644939229        7.1182222058        4.5280868043
  H         5.6849216054        6.0064457788        4.7960953554
  O         9.9364480971        1.5380937890        1.6004492262
  H         9.8751321253        1.8579843757        2.5110309213
  H        10.6850869609        0.8988910334        1.6474693945
  O         9.8177373335       10.3151551640       10.2703095371
  H        10.2058482038       10.5539893349       11.1325001923
  H         8.8712252863       10.5356124761       10.4270651049
  O         1.3306198828        4.5364688877        2.1465147509
  H         1.1811471086        3.6785437120        2.5662011122
  H         0.8434429870        5.1941755802        2.6492129576
  O         2.2917529009        3.7495571392        6.5977281852
  H         2.7779944140        2.9628620740        6.9078414094
  H         1.6243513856        3.8425656701        7.3093730309
  O         7.1915893941       11.6518181343       10.8601394286
  H         7.6377757099       12.5120082657       10.7970848006
  H         6.8863011675       11.5965591207       11.7951003063
  O        12.1038714456        8.5272502634        3.4411256382
  H        12.1923828669        7.8609501881        4.1402919289
  H        12.6284478351        8.1312838064        2.7054845859
  O         1.1605159462        2.2695441775       -0.0719844019
  H         1.7230879093        2.0720578224        0.6981564084
  H         0.2516510803        2.1662693480        0.2580407998
  O         5.4203835512        9.1536255272        6.1967235204
  H         5.8769278818        9.5373556826        5.4179424926
  H         5.5395047188        8.1912356636        6.0284326413
  O        11.3265458338        4.7267046037        9.4720064112
  H        12.1611245776        5.0738508041        9.0922803080
  H        10.6437622556        5.0314385717        8.8117304109
  O         3.2265482831        4.4073830815       11.9856592465
  H         3.5405309426        3.7192502558       12.5924356138
  H         2.2881399141        4.4822240272       12.2076772595
  O         2.7157860930        6.9211445427        7.8662961858
  H         2.4280621938        6.2507052060        7.2260691958
  H         3.4145162419        7.4116390971        7.3930226880
  O         3.7331301455       12.4184274365       10.9688029514
  H         4.3061456712       12.6325801307       10.2090474458
  H         4.0417533590       11.5306320526       11.2486966800
  O         4.5039611066        2.7402625672        1.7241517869
  H         3.8250586421        2.2527329431        2.2380559634
  H         4.6501843864        3.5489220519        2.2557813752
  O         0.2188132767        9.2087539435       10.2584975755
  H         1.1649209617        9.3970460058        9.9982412697
  H        -0.3116143603        9.8536098891        9.7424071161
  O         3.4450317900        8.6753446246        3.8362596776
  H         4.0878117756        7.8689745900        3.7245573156
  H         3.7199410548        8.9917168232        4.7477058515
  O         5.0774233182        4.4322565565        5.9257888341
  H         5.9419459234        4.4594510843        6.3920308969
  H         4.4293102058        4.6529362400        6.6301120243
  O         6.2202975144       11.3312240213        8.2132704960
  H         6.1741506191       11.3879798246        9.1721915628
  H         6.7923699401       10.5853827750        8.0140895542
  O        -0.2021972086       12.2133355988        2.1008240758
  H         0.4611382203       12.2620998179        2.8219221857
  H         0.0807631169       11.4378596921        1.5657103237
  O         8.9016629183        9.8380389656        0.6834533169
  H         9.5464343633        9.4110587126        1.2841091203
  H         8.3609844450       10.4175664219        1.2692794216
  O         9.2276475570        6.8474599242        9.5329350719
  H         9.7279547933        6.7121317212       10.3585674839
  H         8.4730045290        7.4367221825        9.8376902891
  O         1.5586867379        6.4166127632        4.9697021470
  H         2.2909314064        5.7580941282        4.9557265269
  H         1.9910975034        7.3246771344        4.9264079916
  O         1.3144387718        6.1554075848       10.2588475787
  H         0.4616530876        6.0855241321       10.7072593712
  H         1.2366916625        6.9445833593        9.6884348988
  O         5.9562743227        6.5795162468        8.2242490995
  H         6.7560567150        6.4300626356        7.6858151300
  H         5.6050265002        5.6714016640        8.4355361467
  O        11.5865487683        2.8059728772        7.1347399201
  H        10.7655161657        2.2573007422        6.8846750949
  H        11.4477681108        2.9551525860        8.1152789081
  O         4.2695683905        7.2821057724       10.7215974505
  H         4.8104248499        7.3777989219        9.9246137827
  H         3.4711349923        6.7823609269       10.4552894172
  O         8.2366681372        5.4123186562        5.2305210477
  H         9.0372644725        4.9035488209        5.4402210221
  H         7.9516763169        5.0594829986        4.3565034702
  O         4.3420592889        4.2757370180        9.0327695664
  H         3.9579497196        3.3921171289        9.2533012590
  H         4.0081521380        4.8039047261        9.7896428056
  O         1.2470378290        0.6419488121        6.3956743852
  H         0.5923202090        0.4973715806        5.6862419114
  H         0.8024913740        1.2811822356        7.0080035530
  O         7.5931268804        4.9320156480        2.5879409488
  H         8.1850027202        4.3238288484        2.0639427952
  H         7.6157237043        5.7367155168        1.9990222639
  O        10.6731177922        5.0318039940        1.7063049562
  H        10.9600238857        4.1732758058        2.0855599348
  H        10.3496102304        5.5522056099        2.4679180230
  O         1.3417973780        7.2406005959        1.5158281205
  H         0.9813696692        6.9903741370        0.6492948961
  H         2.0337863485        7.8986364071        1.3314264000
  O         9.1100390097        6.8292924914        0.2366519310
  H         8.8535010870        7.6220324667        0.7634113561
  H         9.9050421430        6.4614385630        0.7136867582
  O        11.3327691213        7.9755074083        7.9153441915
  H        10.3699950512        7.7939868257        8.0479796413
  H        11.6789397177        8.0002641270        8.8418994503
  O         9.2252104073       11.2128823924        7.5889509476
  H         9.4994222264       10.5117651673        8.2140296193
  H         9.0314084047       11.9765719271        8.1722865966
  O         6.0979279869        4.9008618363       -0.1217646685
  H         5.9635389489        3.9349676847       -0.0561645263
  H         5.2228908743        5.2584404099       -0.3565529010
  O        10.5527985953       11.0174938298        4.5270853590
  H        11.1105575032       11.0015664020        3.7212483389
  H         9.6728539186       11.2722286183        4.2122951978
  O         9.1924368534        8.5662529719        6.1591805130
  H         8.3345453689        8.6017613445        5.7132198133
  H         9.6930092084        9.3150159304        5.7603902149
  O         7.7030925470       12.1035698514        1.5152740041
  H         7.2728536395       12.5537686420        2.2900640682
  H         8.4546149715       12.7166251256        1.3123602679
  O         4.9546392426       12.0534003308        3.4403404169
  H         4.1128587330       11.9597186651        2.9594061123
  H         4.7979977566       11.7450280234        4.3526957233
     192
 i =       18, E =     -1101.9931962793
  O         3.9771763115        5.6086411432        2.7491601009
  H         3.0933235133        5.3619383329        2.3051507999
  H         4.6559001480        5.5791284624        2.0255903700
  O        12.1341680469       10.5685065753        7.3606055878
  H        11.6823218525        9.7170286277        7.4874449599
  H        11.4631960593       11.1138173224        6.9097022002
  O         1.7882093839       11.2682936098        4.1426676922
  H         1.7796822458       10.3686651933        3.7384491173
  H         2.5985854037       11.1599735079        4.7328827646
  O         1.6862687198        2.2524932280        3.9469223237
  H         2.0641140036        1.4509023112        4.3282139563
  H         1.8435119947        2.8734268217        4.7283127719
  O         8.8368837471        1.5046185085        8.4731835046
  H         8.5350416307        1.5080719736        7.5357333231
  H         8.4525453405        2.3223335690        8.8744588923
  O         9.3664235437        7.5800524300        3.1247887439
  H        10.2387113119        8.0391451069        3.3522036772
  H         9.2208202516        7.0064829685        3.9263966631
  O         2.2196684604        2.1680267498        9.3792409731
  H         2.4151242788        1.2672304463        9.6894831629
  H         1.7164435599        2.5316388488       10.1268162446
  O         7.7116734718       11.5177667745        5.2475785160
  H         7.7669279520       12.4947038432        5.2106846797
  H         8.1323339666       11.3354350139        6.1613456429
  O         1.8812121482        9.2031159823        6.4348424466
  H         1.2102334319        9.7849382600        6.2256169339
  H         1.6033811118        8.5598535711        6.9942288290
  O         3.6865524495       11.8801984058        6.9122172058
  H         2.7101793502       11.8852094236        6.8111925455
  H         4.0325026512       11.0010303706        7.0732388256
  O        11.0174239466        6.1347092528        5.3807333045
  H        10.3709321554        6.7456705033        5.8496460468
  H        11.8553895527        6.3030182821        5.8498874530
  O         3.0656970869        0.2652387752        1.3925030389
  H         3.5863414083        0.4312921099        0.5564202620
  H         2.1782224510        0.0249648147        1.0619795603
  O         5.7019959473        7.7924703681        1.2545751890
  H         4.8561955491        7.4534456674        1.6913318626
  H         6.2561811183        8.1267480405        2.0026778166
  O         4.7224165144       10.3749613821        0.2058317897
  H         4.2268909026       10.4154758559        1.0653608251
  H         5.0914159765        9.4295623753        0.2187969369
  O        11.5695851648        0.7487206515        9.6059727169
  H        10.7701249398        0.7991526819        9.0509789997
  H        11.8768876233       -0.1739583214        9.4822507222
  O         6.8626789972        1.8705549835        3.1958560739
  H         6.4126790155        2.0547475233        2.3268928639
  H         6.0710650437        1.5577964746        3.7188214780
  O         6.8310983193        9.6789543300        3.3332003278
  H         6.2022815603       10.2571091757        2.8612571492
  H         7.3479082345       10.3276837102        3.8670680657
  O         5.5589906452        1.4765631861        6.0537338837
  H         5.1237729382        2.2514055457        6.4460881371
  H         5.3669203992        0.7046339948        6.5789731204
  O         7.9967510538        4.0999634499        9.9005630736
  H         8.5133228505        4.8508462311        9.6874056655
  H         7.2074604856        4.4471444521       10.4269453385
  O         0.8298453677       10.1797494610        0.5674945485
  H         1.4252910853       10.4766766086       -0.2212393916
  H         0.2505694677        9.5144787861       -0.0166749589
  O         7.1517954728        8.4658144577       10.9272838949
  H         7.7500213443        8.9438074841       11.5406326109
  H         6.8098142932        7.7062946646       11.5030019625
  O         2.8273023432        9.9859185068        9.5543987634
  H         3.4189642072        9.2836264164        9.2355973607
  H         2.6865717449       10.5620502200        8.7484840018
  O        11.1416073346        3.0965664834        4.0549321954
  H        11.2689572714        3.8349853804        4.6883635170
  H        11.9369864475        2.5559755447        4.1633634891
  O         8.2746116557        2.1269476812        5.7869882813
  H         7.2888167555        2.0234016145        5.8564303319
  H         8.4503382540        2.3113250102        4.8619485697
  O         5.7948659722        6.9489758391        4.4880351662
  H         6.7775349951        7.1016004898        4.5200666136
  H         5.6793396227        5.9910387466        4.7974744453
  O         9.9388560941        1.5015345168        1.5991768528
  H         9.8794294546        1.8932729734        2.5247708812
  H        10.7087495372        0.8974980189        1.6541288880
  O         9.8095979323       10.3126069314       10.2794207997
  H        10.2047024635       10.5512487294       11.1312065490
  H         8.8660487634       10.5395181845       10.4204676284
  O         1.3571217055        4.5356029007        2.1273217091
  H         1.1859509986        3.6765355499        2.6102215313
  H         0.8299934901        5.2026728429        2.6250205089
  O         2.2868692147        3.7396938566        6.5910501130
  H         2.7775847489        2.9603610538        6.9082682538
  H         1.6101195204        3.8374836132        7.2898886361
  O         7.1772264480       11.6703952997       10.8801444907
  H         7.6433896445       12.5220754135       10.7907814106
  H         6.8936408670       11.5877145205       11.7989532396
  O        12.1083637371        8.5374858835        3.4425575798
  H        12.1686313497        7.8299529130        4.1593166000
  H        12.6461671137        8.1505462811        2.6829824268
  O         1.1553876168        2.2595319849       -0.0743012681
  H         1.7220213696        2.0705670635        0.6926078281
  H         0.2352501823        2.1669039450        0.2484885497
  O         5.4470293710        9.1407142412        6.1896686924
  H         5.8680248156        9.5552031687        5.4167583485
  H         5.5119731203        8.2069466864        6.0220864000
  O        11.3387154243        4.7946974956        9.4337295569
  H        12.1671300477        5.0497333351        9.0733840620
  H        10.6415071577        4.9998403264        8.8582943556
  O         3.2363640058        4.4105943029       11.9474252118
  H         3.5467769280        3.7107933179       12.6221302764
  H         2.2860738471        4.4955485952       12.2125188754
  O         2.7150786763        6.9358969389        7.8756590880
  H         2.4345599462        6.2420979605        7.2317805613
  H         3.4310127398        7.4104907978        7.4026249222
  O         3.7429326068       12.4184063648       10.9740958266
  H         4.3120702711       12.6367569551       10.2166533199
  H         4.0533860393       11.5245050325       11.2549011482
  O         4.4634780102        2.7683697128        1.7346467444
  H         3.8520203961        2.2376079747        2.2117276032
  H         4.6522599381        3.5524077533        2.2648729118
  O         0.2228160539        9.2017944646       10.2512590950
  H         1.1655578803        9.3991937466        9.9967618320
  H        -0.3109579424        9.8560385950        9.7514126408
  O         3.6435489023        8.6806443781        3.8472469273
  H         3.9434010193        7.8751105373        3.7515554083
  H         3.6618067103        8.9659327673        4.7100419923
  O         5.0851282700        4.4270510296        5.9384940850
  H         5.9561096203        4.4596998461        6.3904477352
  H         4.4259638245        4.6547251165        6.6211293702
  O         6.1561023849       11.3349763413        8.1739405843
  H         6.2398153987       11.3716727227        9.2269988340
  H         6.7967093510       10.6006634836        7.9907080539
  O        -0.1811112024       12.2047357127        2.1109848242
  H         0.4579031180       12.2797499092        2.8240214778
  H         0.0804412678       11.4242513114        1.5502027436
  O         8.9120127211        9.7995712037        0.6889022671
  H         9.5578507690        9.4179606025        1.2883925740
  H         8.3542432564       10.4451774993        1.2569170548
  O         9.1873998805        6.8395726483        9.5360361314
  H         9.6912512252        6.7270076866       10.3708168026
  H         8.5075166569        7.4313125798        9.8326400846
  O         1.6323818143        6.4429866928        4.9275944966
  H         2.2478522310        5.7967403436        4.9454750509
  H         1.9649948465        7.2561818139        4.9588485476
  O         1.3087190377        6.1633407185       10.2637044407
  H         0.4386928385        6.0767538408       10.7102043389
  H         1.2533279970        6.9428124037        9.6878570948
  O         6.0039095052        6.5259188160        8.2542096936
  H         6.7302020069        6.4422090493        7.6875686297
  H         5.5827936870        5.7145203213        8.4222220110
  O        11.5217289136        2.7949630512        7.1541634175
  H        10.8253689686        2.2635668200        6.8896279924
  H        11.4548039258        2.9533138536        8.0854284859
  O         4.2655223456        7.2642712820       10.7210529251
  H         4.8315740187        7.3988102297        9.9114779137
  H         3.4579003508        6.7748377949       10.4613108558
  O         8.2190234493        5.3974635272        5.2468222787
  H         9.0375833460        4.9080397214        5.4711577052
  H         7.9474998269        5.0622787694        4.3082678849
  O         4.3254801343        4.2680615319        9.0362748246
  H         3.9567732427        3.3975991537        9.2538526696
  H         4.0020308140        4.7999445321        9.7825856120
  O         1.2410132946        0.6535798413        6.4076962192
  H         0.5856579846        0.4769935835        5.7109204075
  H         0.7871668466        1.2820770434        7.0039081971
  O         7.5871217952        4.9259777276        2.4617071956
  H         8.1931637486        4.3318363985        2.1271695418
  H         7.5955887386        5.7255926593        2.0400292801
  O        10.6968698610        5.0442104367        1.7305936468
  H        10.9545545645        4.1838712840        2.0855437100
  H        10.3515491231        5.5523928783        2.4868724666
  O         1.3398393951        7.2570405263        1.5189999964
  H         0.9882312909        6.9815921462        0.6397025375
  H         2.0353621142        7.9119195308        1.3315438558
  O         9.1312194656        6.7857633793        0.2859961155
  H         8.8486440259        7.5747003509        0.7255831055
  H         9.8765786206        6.5049291346        0.6746503683
  O        11.3423352801        7.9583798965        7.9208319650
  H        10.3796835318        7.7907951264        8.0655698943
  H        11.6749377487        7.9988170379        8.8359805004
  O         9.2250885770       11.2208628627        7.5778221715
  H         9.4904587103       10.5187405062        8.2202891584
  H         9.0170443591       11.9706139825        8.1724369316
  O         6.1140567977        4.9062054201       -0.1378845774
  H         5.9559152686        3.9525068219       -0.0511502322
  H         5.2253638426        5.2555228628       -0.3730126738
  O        10.5593262075       11.0090424493        4.5259092286
  H        11.1244699445       10.9792023089        3.7347056305
  H         9.6470564969       11.2961703229        4.2415429784
  O         9.2013321368        8.5760117922        6.1392368722
  H         8.3384770849        8.5979684094        5.7070061379
  H         9.7011151393        9.3070150947        5.7652779828
  O         7.6763107519       12.1256439616        1.5027492176
  H         7.2834986155       12.5419785670        2.2726065010
  H         8.4598922346       12.7140701833        1.3303141164
  O         4.9607667726       12.0525096450        3.4364543732
  H         4.1065134159       11.9686913526        2.9647189150
  H         4.7937528266       11.7575712078        4.3605378861
     192
 i =       19, E =     -1102.0981990627
  O         3.9704834712        5.5974691594        2.7390120709
  H         3.1024572811        5.3526899013        2.3145688958
  H         4.6506821512        5.5699048740        2.0298009373
  O        12.1335683673       10.5469595498        7.3555458153
  H        11.6969512547        9.6999248158        7.5015433213
  H        11.4704573956       11.0965291857        6.9163724415
  O         1.8073129884       11.2563792159        4.1609235070
  H         1.7600408323       10.3856082082        3.7414699577
  H         2.5707263180       11.1817759570        4.7552100964
  O         1.6885383098        2.2630019839        3.9676411225
  H         2.0467987317        1.4224940132        4.3217093731
  H         1.8382467178        2.8771953820        4.7390654967
  O         8.8327776678        1.4869731432        8.4930351359
  H         8.5399560241        1.5276454861        7.5336656504
  H         8.4475710645        2.2948041994        8.9018469560
  O         9.3957114738        7.5647279290        3.1427539948
  H        10.2567817378        8.0190760145        3.3570971427
  H         9.2332524488        6.9983891465        3.9316810314
  O         2.2286974808        2.1756467494        9.3811443819
  H         2.4180052710        1.2689808502        9.6796100592
  H         1.7257800540        2.5301163837       10.1353939694
  O         7.7232288256       11.5198849426        5.2566622802
  H         7.7684105555       12.4967103391        5.1962839349
  H         8.1371804634       11.3430051171        6.1624212336
  O         1.9197833939        9.1765724728        6.3643868155
  H         1.1668318809        9.7973520300        6.2447146214
  H         1.6284198737        8.5424756918        7.0548671463
  O         3.6784810197       11.8867634929        6.8949022927
  H         2.6998417932       11.8982759412        6.8089754086
  H         4.0139754194       10.9996360751        7.0765788011
  O        11.0106910702        6.1423668239        5.3753419268
  H        10.3721137957        6.7664876826        5.8394149409
  H        11.8586073399        6.3040849931        5.8334354034
  O         3.0838992099        0.2684084302        1.3868440507
  H         3.5952498984        0.4236041274        0.5433732181
  H         2.1905768304        0.0211577659        1.0731061068
  O         5.7065050961        7.7845785601        1.2634199924
  H         4.8783774656        7.4431656305        1.6992455798
  H         6.2542732758        8.1467919420        2.0141048787
  O         4.7063340089       10.3420738045        0.2057853098
  H         4.2085187155       10.4055127396        1.0500816618
  H         5.0720204371        9.4165759810        0.2142806848
  O        11.5640483775        0.7419042084        9.6133794209
  H        10.7379318437        0.8023331728        9.0782144088
  H        11.8802360113       -0.1820703893        9.4639294700
  O         6.8440915543        1.8568999410        3.2012959939
  H         6.4073749244        2.0588894491        2.3327361817
  H         6.0648316799        1.5485798186        3.7221489772
  O         6.8347080416        9.6949217204        3.3418767576
  H         6.2026786777       10.2672120460        2.8656132353
  H         7.3521734284       10.3475473367        3.8679277052
  O         5.5901191907        1.4843544218        6.0546435370
  H         5.1302162515        2.2625925312        6.4317633634
  H         5.3511605723        0.7054864414        6.5948668447
  O         7.9898785385        4.0714803260        9.8795143635
  H         8.5001886713        4.8813020718        9.6931822821
  H         7.2253388147        4.4146027719       10.4049256759
  O         0.8420897653       10.1585924608        0.5020407686
  H         1.4255188261       10.4993883650       -0.2027640095
  H         0.2598858580        9.5562468498        0.0008536273
  O         7.1570693386        8.4758378854       10.9212642919
  H         7.7652583444        8.9493191784       11.5290464096
  H         6.8101036153        7.7276736271       11.4906469795
  O         2.8238197983        9.9787482503        9.5530158445
  H         3.4314109389        9.2627883287        9.2637823386
  H         2.6962510373       10.5539535492        8.7526664427
  O        11.1338584195        3.0811792304        4.0458319892
  H        11.2441828569        3.8272470514        4.6785038865
  H        11.9581629894        2.5541703212        4.1796836756
  O         8.2614492104        2.0972405287        5.7999445256
  H         7.2736377924        1.9975210212        5.8636626474
  H         8.4437426599        2.3056817207        4.8721282468
  O         5.8108309036        6.9203874816        4.5113557957
  H         6.7698550991        7.0977918810        4.5276642375
  H         5.6771031968        6.0130005162        4.8062652718
  O         9.9505854524        1.4931000638        1.6167628184
  H         9.8933546633        1.8870664432        2.5326279434
  H        10.7161190861        0.8783203839        1.6869064548
  O         9.7952481496       10.3235388321       10.2670210141
  H        10.1947029818       10.5347675685       11.1390595038
  H         8.8523084534       10.5526469285       10.4195151417
  O         1.3834946299        4.5174864262        2.1329454511
  H         1.2172461924        3.6661442430        2.6239127765
  H         0.8418393566        5.2199607120        2.6086479454
  O         2.2893091525        3.7364640160        6.5884062269
  H         2.7762506409        2.9556821394        6.9071278194
  H         1.6035645784        3.8313668405        7.2797807373
  O         7.1900516713       11.6806586672       10.8805914105
  H         7.6707543158       12.5314308746       10.8050795629
  H         6.8712888739       11.6080440693       11.8065013045
  O        12.1132897062        8.5348729849        3.4339795321
  H        12.1807509004        7.8309688566        4.1333532110
  H        12.6390389899        8.1480722219        2.6854426229
  O         1.1482617131        2.2488966807       -0.0801377253
  H         1.7068264577        2.0531654009        0.6931656503
  H         0.2255944230        2.1668173099        0.2388763004
  O         5.4284421939        9.1685081067        6.1702008498
  H         5.8662592023        9.5610100330        5.3896871636
  H         5.5432873196        8.2044569134        6.0173431605
  O        11.3225299813        4.7528299305        9.4384519585
  H        12.1754828378        5.0851303630        9.0907302082
  H        10.6327338101        5.0347340979        8.8312797624
  O         3.2330745043        4.3906867981       11.9652165472
  H         3.5485526760        3.7100572405       12.6232638913
  H         2.2875529487        4.4863453067       12.2080831951
  O         2.7225238757        6.9423279256        7.8785891006
  H         2.4567654690        6.2471741018        7.2323307753
  H         3.4441615516        7.4166908627        7.4147338417
  O         3.7337931835       12.4235788422       10.9665753101
  H         4.3143855570       12.6522724399       10.2160224154
  H         4.0670450006       11.5310175949       11.2553398031
  O         4.4996467902        2.7649086235        1.7147720387
  H         3.8122847576        2.2470429650        2.1853204575
  H         4.6391156128        3.5643502445        2.2601304168
  O         0.2248460574        9.1958111040       10.2526042866
  H         1.1668065731        9.4177346996        9.9807953308
  H        -0.3202150728        9.8439381747        9.7559522792
  O         3.5647522514        8.6703144086        3.8422117568
  H         3.9844775723        7.8576303436        3.7379399601
  H         3.6717971535        8.9649848970        4.7246588902
  O         5.0747559458        4.4281227901        5.9396009606
  H         5.9514930738        4.4730521565        6.3804510614
  H         4.4269783160        4.6556705760        6.6359522393
  O         6.1690658017       11.3359742393        8.2128309848
  H         6.2314639717       11.3696776892        9.2377608530
  H         6.7887331039       10.5975590502        7.9906258355
  O        -0.1881400263       12.2228183084        2.1018316793
  H         0.4582188561       12.2621274983        2.8346848650
  H         0.0754771786       11.4492611473        1.5206133613
  O         8.9075327607        9.8134572134        0.6832733576
  H         9.5326848964        9.4058093141        1.3123147852
  H         8.3592423964       10.4560481381        1.2426068964
  O         9.2094881001        6.8379112402        9.5250723066
  H         9.6946913234        6.7194387449       10.3742039592
  H         8.4683441776        7.4128299207        9.8204053201
  O         1.5145777249        6.4094731565        5.0094857453
  H         2.3253782214        5.7516918031        4.9361655444
  H         2.0042544912        7.3408164486        4.9099761204
  O         1.3123313948        6.1717376087       10.2620356897
  H         0.4259024070        6.0742861715       10.6919244429
  H         1.2462015160        6.9551992274        9.6872590257
  O         5.9400018910        6.5647537669        8.2412032211
  H         6.7798010934        6.4392089259        7.7213739701
  H         5.5944360359        5.6677322649        8.4433418498
  O        11.6212917697        2.7942692433        7.1532364221
  H        10.7700767249        2.2685827897        6.8964702472
  H        11.4588013881        2.9545458615        8.1380827941
  O         4.2612856816        7.2712863425       10.7105293890
  H         4.8105032542        7.4041594777        9.8967722952
  H         3.4709616260        6.7855204255       10.4460302470
  O         8.2185010495        5.4024199827        5.2331168978
  H         9.0421546505        4.9029031532        5.5034730065
  H         7.9669224827        5.0625346966        4.3149383750
  O         4.3333532096        4.2927782234        9.0335633004
  H         3.9367528873        3.4032011991        9.2211848766
  H         3.9962113560        4.8120570956        9.7855078403
  O         1.2328554079        0.6511106638        6.3931295867
  H         0.5693651557        0.4595991701        5.7148018152
  H         0.7787456036        1.2640712425        7.0038326836
  O         7.5953569017        4.9346024250        2.5578078261
  H         8.1869007320        4.3292278275        2.0863667796
  H         7.5742967517        5.7475318234        1.9675251030
  O        10.7029303386        5.0453710280        1.7360485955
  H        10.9686974437        4.1856876536        2.0948964134
  H        10.3530748829        5.5551111161        2.4901965598
  O         1.3234794980        7.2630135866        1.5154551346
  H         0.9878089874        6.9778989306        0.6321202700
  H         2.0155770372        7.9252018558        1.3372079356
  O         9.0955093563        6.8261772806        0.1987859866
  H         8.8410667557        7.6029863912        0.7289783608
  H         9.8948137239        6.3886667472        0.7122396267
  O        11.3662693839        7.9532228542        7.9336932328
  H        10.4063151265        7.7958223874        8.0728280060
  H        11.7103449551        7.9924309744        8.8335287000
  O         9.2302384340       11.2092290891        7.5762620776
  H         9.4964460483       10.5159794753        8.2119716649
  H         8.9992862439       11.9822429867        8.1527100133
  O         6.1020193722        4.9323134193       -0.1590487887
  H         5.9538235306        3.9734289738       -0.0509575468
  H         5.2064146834        5.2693171172       -0.3986532421
  O        10.5764213631       11.0089816636        4.5429810795
  H        11.1271836007       10.9750081810        3.7353470688
  H         9.6686067573       11.3073412708        4.2648671830
  O         9.1980720972        8.5807996586        6.1563762331
  H         8.3389440992        8.5967405797        5.7064489302
  H         9.7042593040        9.3071617142        5.7475371948
  O         7.6961340673       12.1326652227        1.4938169989
  H         7.2686310202       12.5653588003        2.2563254923
  H         8.4791461186       12.7235910585        1.3323680848
  O         4.9419024155       12.0625036163        3.4194935970
  H         4.0906545209       11.9650634715        2.9399322790
  H         4.7787341974       11.7775705784        4.3402533235
     192
 i =       20, E =     -1101.9141896073
  O         3.9543821549        5.6532698068        2.6880873557
  H         3.1462089058        5.3346230871        2.3213510477
  H         4.6443994027        5.5729120392        2.0300888395
  O        12.1635867999       10.5978189838        7.3540835052
  H        11.6475395692        9.7037908132        7.5143426222
  H        11.4305534183       11.1498092846        6.9010632704
  O         1.8282723947       11.2451271478        4.1216584054
  H         1.7683413010       10.3435510180        3.7080485092
  H         2.5635384541       11.2041052583        4.7393137139
  O         1.7355823481        2.2914598013        3.9681532515
  H         2.0727338716        1.4150178535        4.3092942842
  H         1.7947834459        2.8878556321        4.7112776326
  O         8.8358945074        1.5328971432        8.4954474147
  H         8.5638984633        1.5238891414        7.5591896467
  H         8.4841146308        2.3410046541        8.8547361038
  O         9.3602022142        7.6086358188        3.1736487007
  H        10.2089572562        8.0264330249        3.2945806061
  H         9.2229691221        7.0097410489        3.8833744121
  O         2.2412337562        2.1778561223        9.3636242360
  H         2.4092210887        1.2650427635        9.6867770147
  H         1.7211730458        2.5309918071       10.1244151819
  O         7.6993435082       11.5357202536        5.3073919768
  H         7.7679306193       12.5106707590        5.2255964803
  H         8.1335535082       11.2833391081        6.0834563477
  O         1.9840289140        9.1833860093        6.3104394348
  H         1.1170352552        9.8472398142        6.2673837063
  H         1.6176343560        8.5496464989        7.0832589366
  O         3.7057289920       11.8865985648        6.8895028483
  H         2.7216455999       11.8898054367        6.7967276231
  H         4.0354717996       10.9564285111        7.0863101430
  O        11.0169631748        6.1971228277        5.3881711939
  H        10.3732299315        6.6904692566        5.8545870976
  H        11.8747988687        6.2862301250        5.8497448515
  O         3.0245480953        0.2785466585        1.3842153884
  H         3.5739374432        0.4208745246        0.6003510805
  H         2.1641504612        0.0159876888        1.0411389832
  O         5.6755975554        7.7771814141        1.2472629287
  H         4.9211183449        7.5604353602        1.7014233194
  H         6.2301060211        8.0741499537        1.9710421134
  O         4.7860441114       10.3532481696        0.2661135310
  H         4.2353740903       10.4382989805        1.0305579585
  H         5.0869937390        9.4861730029        0.1742628350
  O        11.5966016598        0.7503684182        9.5890574204
  H        10.7838918579        0.7990708607        9.0517821919
  H        11.8469776511       -0.1597348530        9.4798753835
  O         6.8157775511        1.9167166981        3.1861726094
  H         6.4208005215        2.0499514094        2.3327813356
  H         6.1232604174        1.5703930940        3.7267600980
  O         6.8276889776        9.6731892527        3.3301208620
  H         6.1906416503       10.2558692970        2.8863054146
  H         7.3391849497       10.2912145677        3.8817272659
  O         5.6063219517        1.4969539725        6.0209791751
  H         5.1141679539        2.2422392287        6.4273353140
  H         5.3320669478        0.6881098243        6.6056822179
  O         7.9350740127        4.0404456904        9.9161995744
  H         8.4771725164        4.9138044977        9.7402038381
  H         7.2619014537        4.4646328052       10.3839428068
  O         0.8734410084       10.0822546213        0.4695930183
  H         1.4077463977       10.4921071661       -0.1732900666
  H         0.2515809230        9.5714048196        0.0273773116
  O         7.0835303992        8.4286700103       10.9716369557
  H         7.7177747227        8.9102164525       11.5506878612
  H         6.8671529742        7.7031559039       11.4831209146
  O         2.8367668468       10.0023325514        9.5231558896
  H         3.4227525479        9.2851663051        9.2165826983
  H         2.6410211727       10.5331300643        8.7766215906
  O        11.1455020835        3.1210225072        4.0590054100
  H        11.2852051233        3.8339398915        4.7145463770
  H        11.9306266670        2.5615783512        4.1642360090
  O         8.2810721342        2.1040826917        5.8008388322
  H         7.2860580230        2.0482049370        5.8482941011
  H         8.4586443549        2.3548671494        4.8465009971
  O         5.8043703938        6.9289036608        4.4691871565
  H         6.7617550131        7.0944569810        4.5158413798
  H         5.6632656911        5.9935444365        4.7905581622
  O         9.9641403229        1.5643394093        1.6100046907
  H         9.8716341570        1.8222201220        2.4844264910
  H        10.7147035085        0.9226015344        1.6681347549
  O         9.8200373629       10.3107203213       10.2695293170
  H        10.1991080568       10.5510470140       11.1343115183
  H         8.8742239658       10.5333847433       10.4287108337
  O         1.3025302688        4.5680662690        2.1354180546
  H         1.2106053403        3.7180559816        2.5573476594
  H         0.8290970288        5.1640977361        2.6615679522
  O         2.2844276231        3.7321687333        6.5747025424
  H         2.7734607711        2.9608568110        6.9194543596
  H         1.5913766489        3.8229017545        7.2611629009
  O         7.1984846921       11.6497863683       10.8458319286
  H         7.5960276545       12.5187959577       10.8178283683
  H         6.8958123815       11.6090545392       11.7981668519
  O        12.0931498740        8.5114202430        3.4460117155
  H        12.2457380888        7.9233821647        4.1371201667
  H        12.5741045189        8.0788369507        2.7291350964
  O         1.1369297101        2.2629708861       -0.0893393281
  H         1.7066948355        2.0810976816        0.6796929717
  H         0.2461027238        2.1514551405        0.2577074184
  O         5.4143645566        9.1720427010        6.2170470918
  H         5.8640150047        9.5394013206        5.4200200379
  H         5.5294603428        8.2006831450        6.0256265115
  O        11.3527418091        4.6725131706        9.4774033243
  H        12.1824384981        5.0847045472        9.0676504478
  H        10.6539622789        5.0837067288        8.8094610745
  O         3.2295835584        4.4194968177       12.0531117119
  H         3.5577270755        3.7462639619       12.5281840562
  H         2.2937359522        4.4905953118       12.1831538982
  O         2.7407341627        6.9123559705        7.8718054975
  H         2.4089174096        6.2735115871        7.2663760964
  H         3.4354363676        7.3941957649        7.3966889997
  O         3.7705533703       12.4093964797       11.0039567041
  H         4.3351790191       12.6232726265       10.2407155730
  H         4.0478064913       11.5101299914       11.2440328224
  O         4.5105369514        2.7738388110        1.7259001795
  H         3.8292454752        2.2337653947        2.2022470267
  H         4.6204580994        3.5604295664        2.3162733308
  O         0.2200561249        9.1989250109       10.2545530377
  H         1.1605125925        9.3935419031       10.0018729982
  H        -0.2957214825        9.8649616272        9.7643327712
  O         3.3147522514        8.6918039240        3.8058552281
  H         4.1710389304        7.8436163253        3.7096282895
  H         3.7591915352        9.0143810973        4.7748687394
  O         5.1046991056        4.3996860853        5.9274248237
  H         5.9520583279        4.4585407119        6.3947116361
  H         4.4567444407        4.6562404019        6.6255808836
  O         6.2876289156       11.3360631491        8.2327370154
  H         6.1801454340       11.4211442723        9.1125738268
  H         6.7542233681       10.5569385624        8.0003201413
  O        -0.1899008332       12.2082825771        2.0861228016
  H         0.4789268962       12.2450306851        2.8126587064
  H         0.1066759721       11.4409043518        1.6056004690
  O         8.9294585476        9.8691449430        0.6789461484
  H         9.5508988755        9.4245862707        1.3097483038
  H         8.3912246217       10.3607549057        1.2412273202
  O         9.1976436070        6.8506073549        9.5501096681
  H         9.7102201219        6.7225706591       10.3667980362
  H         8.4256023916        7.4591407182        9.8542214855
  O         1.6678638414        6.4283165192        4.9199142441
  H         2.2309586346        5.7604913737        4.9258738960
  H         1.9535898086        7.2913822069        4.9323953361
  O         1.3020220112        6.1265636230       10.2786791023
  H         0.4529113610        6.1147580594       10.7123269616
  H         1.2414604852        6.9192377033        9.7044649097
  O         5.9333313592        6.6142563533        8.2258064845
  H         6.7638927365        6.4415300755        7.6954720678
  H         5.6202712832        5.6548251096        8.4400800719
  O        11.4762158629        2.7983133544        7.1325986831
  H        10.8207731252        2.2499840995        6.8851729515
  H        11.4602083546        2.9476933069        8.0416210576
  O         4.2834202409        7.3095742348       10.7233386719
  H         4.8141478727        7.2905877767        9.9592727334
  H         3.4775523527        6.8110261803       10.4435370258
  O         8.2203579867        5.3904920596        5.2152563740
  H         8.9894146522        4.9183304479        5.3655737720
  H         7.9299995945        5.0318567287        4.3969410199
  O         4.3269130492        4.2397323664        9.0394544970
  H         3.9437368747        3.3858781855        9.2806729785
  H         3.9890802173        4.7876303778        9.7843942022
  O         1.2430162737        0.6949980783        6.4191111932
  H         0.5958921835        0.4322799269        5.7564202818
  H         0.7582951172        1.3028030577        7.0181344234
  O         7.5679630837        4.9082174714        2.6106995496
  H         8.1884012588        4.3174560311        2.0409930074
  H         7.6012594958        5.7188360324        1.9866019959
  O        10.6955652773        5.0692311570        1.7366343033
  H        10.9746335025        4.1941966501        2.0981553337
  H        10.3573317691        5.5664661910        2.5071853615
  O         1.3733967549        7.2481502929        1.5074832789
  H         0.9930624432        7.0098426089        0.6776109105
  H         2.0443703270        7.9187468115        1.3039085277
  O         9.1134508753        6.7665543264        0.2241108293
  H         8.8745690197        7.5858398951        0.7585733083
  H         9.8715456960        6.4677212809        0.7089458975
  O        11.3117855973        7.9421194819        7.9133426105
  H        10.3454209619        7.7740973592        8.0689673062
  H        11.6738861793        7.9882968607        8.8397604434
  O         9.1941159754       11.2400097662        7.6145087203
  H         9.4625592420       10.5290418087        8.1816682769
  H         9.0368549727       11.9669753370        8.1916233367
  O         6.1226605066        4.8857476589       -0.1623698458
  H         5.9558394185        3.9273299357       -0.0364620510
  H         5.2734123805        5.2782400239       -0.3847267312
  O        10.5207346496       11.0364963612        4.5664741258
  H        11.0790957139       10.9533081878        3.7585911225
  H         9.6844046850       11.2707189725        4.2156934245
  O         9.2194084852        8.5394832042        6.1683935669
  H         8.3474673086        8.6078208922        5.6881940438
  H         9.7187544349        9.3251050534        5.7228993504
  O         7.6821293312       12.1065578400        1.4954714594
  H         7.2355587362       12.5364654808        2.2762298136
  H         8.4595904248       12.6878865631        1.3155061255
  O         4.9673935043       12.0464754289        3.4809868722
  H         4.1369827958       12.0128679658        2.9871510595
  H         4.7866563769       11.7316007468        4.3721925865
     192
 i =       21, E =     -1102.1074330381
  O         3.9722618561        5.6109167611        2.7186107097
  H         3.1146932522        5.3470416005        2.3071072515
  H         4.6509630379        5.5604310461        2.0254778309
  O        12.1359151140       10.5616101956        7.3538560804
  H        11.6763751313        9.6865520625        7.5246922176
  H        11.4663271247       11.1093430735        6.9084739344
  O         1.8055535674       11.2608539473        4.1487454604
  H         1.7581380134       10.3773073977        3.7316128920
  H         2.5553502072       11.1944852900        4.7573061353
  O         1.7069758864        2.2822554938        3.9703238064
  H         2.0404397372        1.4159990522        4.3108833054
  H         1.8246020283        2.8748247717        4.7425942003
  O         8.8600128851        1.5045453821        8.4716339709
  H         8.5582748082        1.5251715101        7.5492435371
  H         8.4511514394        2.3203762139        8.9444582116
  O         9.3973458969        7.5688073404        3.1413742851
  H        10.2559498802        8.0091949448        3.3299712930
  H         9.2309699454        7.0007185297        3.9286099399
  O         2.2527384027        2.1895563089        9.3732763326
  H         2.4144151045        1.2617182618        9.6708706862
  H         1.7311295576        2.5318499155       10.1366461189
  O         7.7228144736       11.5234700581        5.2546637359
  H         7.7727776970       12.5004374892        5.2106550301
  H         8.1353521130       11.3257896322        6.1443698443
  O         1.9237386145        9.1941290787        6.3857292061
  H         1.1593827151        9.7956748379        6.2612450547
  H         1.6538751732        8.5450944150        7.0340993745
  O         3.6917895970       11.8905415841        6.8740367151
  H         2.7041672164       11.9053008140        6.8022961838
  H         4.0090973735       10.9711101165        7.0764201744
  O        11.0106612339        6.1735607769        5.3748862172
  H        10.3800637203        6.7487239521        5.8426828962
  H        11.8704026421        6.2922827499        5.8257063845
  O         3.0653238966        0.2782533287        1.3807974879
  H         3.5879537007        0.4144400237        0.5589261112
  H         2.1800973267        0.0140333726        1.0685906462
  O         5.7152362662        7.8194700236        1.2637754902
  H         4.8941913483        7.4655790974        1.7096616920
  H         6.2518266622        8.1224352192        1.9961816770
  O         4.7196750308       10.3472952258        0.2058062726
  H         4.2156766993       10.4173048696        1.0347127266
  H         5.0819999579        9.4253017186        0.2043437169
  O        11.5810301619        0.7384214667        9.6034038067
  H        10.7346697362        0.8081637345        9.0898081606
  H        11.8583072030       -0.1758049634        9.4555726391
  O         6.8409173132        1.8705273956        3.1996822016
  H         6.3996368126        2.0713083276        2.3383216160
  H         6.0763626535        1.5585975255        3.7306218552
  O         6.8258728756        9.6860907916        3.3474476400
  H         6.1966125337       10.2712332085        2.8892145340
  H         7.3489053611       10.3364383096        3.8741870078
  O         5.6052041914        1.4863589441        6.0422983359
  H         5.1313285871        2.2637839449        6.4108177440
  H         5.3432687969        0.7051012573        6.6069719019
  O         7.9751635682        4.0641954100        9.8546078974
  H         8.5006580670        4.8971711835        9.6930907980
  H         7.2048267117        4.4130216355       10.4345507198
  O         0.8467121262       10.1781503766        0.5287067521
  H         1.4479708156       10.4985821807       -0.2092720041
  H         0.2659588732        9.5413172614       -0.0330086892
  O         7.1405756757        8.4553456267       10.9294898968
  H         7.7528375080        8.9366938348       11.5285857358
  H         6.8141580807        7.7178126555       11.4969891272
  O         2.8198926719        9.9748486413        9.5490145313
  H         3.4274008250        9.2623050122        9.2611954176
  H         2.6867687673       10.5362574996        8.7544792367
  O        11.1385778016        3.0906269662        4.0568918414
  H        11.2524668898        3.8253303584        4.6955154747
  H        11.9497541452        2.5592415644        4.1746821156
  O         8.2622116114        2.0850581721        5.8088556155
  H         7.2705087272        2.0035081775        5.8630574933
  H         8.4455618815        2.3197975122        4.8706443122
  O         5.7979313329        6.9406110645        4.5107012857
  H         6.7687969307        7.0877415432        4.5272979894
  H         5.6729473500        5.9826131353        4.7991598587
  O         9.9659133908        1.5007156809        1.6233377000
  H         9.8924071731        1.8713039741        2.5235018180
  H        10.7341804320        0.8865115401        1.7013062270
  O         9.7969385700       10.3184730853       10.2682633554
  H        10.1835845834       10.5359458187       11.1342246604
  H         8.8546278532       10.5550249239       10.4223990986
  O         1.3497853663        4.5385318069        2.1337223528
  H         1.2473178544        3.6963521923        2.6007518475
  H         0.8509254198        5.1883730908        2.6271240889
  O         2.2881759920        3.7307603738        6.5758212666
  H         2.7718254682        2.9532655193        6.9142622349
  H         1.5836921232        3.8178621112        7.2521256008
  O         7.1857884060       11.6794071285       10.8770460549
  H         7.6512605522       12.5346032312       10.8219979710
  H         6.8845883601       11.6204790287       11.8015301847
  O        12.1121512626        8.5300445561        3.4373201978
  H        12.2105102530        7.8577500281        4.1333685357
  H        12.6079146270        8.1261128492        2.6915232921
  O         1.1324744210        2.2409785144       -0.0932995401
  H         1.6925340854        2.0563461697        0.6819699045
  H         0.2221252882        2.1571334291        0.2387249589
  O         5.4349612420        9.1723541978        6.1822201595
  H         5.8580333163        9.5591043424        5.3877243468
  H         5.5318465800        8.2229456783        6.0090014023
  O        11.3438502475        4.7333668334        9.4525342637
  H        12.1605471455        5.0757996267        9.0733573604
  H        10.6525470162        5.0727387575        8.8233767952
  O         3.2295889196        4.4028051046       11.9518265821
  H         3.5617192282        3.7197208948       12.6355210161
  H         2.2861177374        4.4819653916       12.1966542480
  O         2.7339832417        6.9427475753        7.8838937862
  H         2.4515907299        6.2581804142        7.2510061388
  H         3.4588452753        7.4059223775        7.4184316951
  O         3.7619076050       12.4145709143       10.9894645410
  H         4.3310840162       12.6506565236       10.2345332675
  H         4.0624684131       11.5227580959       11.2467269628
  O         4.4972372593        2.7822584563        1.7095280137
  H         3.8247718528        2.2433783853        2.1649145122
  H         4.6148420301        3.5650746716        2.2924934466
  O         0.2291771756        9.1936863068       10.2479500399
  H         1.1659974384        9.4099703849        9.9851389623
  H        -0.3211077275        9.8500637069        9.7656638441
  O         3.4109506147        8.6782957252        3.8172386344
  H         4.0971920734        7.8355577047        3.7161749226
  H         3.7046244665        8.9847418135        4.7535509594
  O         5.0830381284        4.4069618868        5.9408588283
  H         5.9595729610        4.4769401933        6.3773388924
  H         4.4428860344        4.6597275432        6.6383468188
  O         6.2255034216       11.3409803846        8.2310829741
  H         6.2295968126       11.3859125145        9.2006744007
  H         6.7514148814       10.5799360934        7.9909226512
  O        -0.1840290451       12.2212097908        2.0938022568
  H         0.4678424599       12.2496931545        2.8290286995
  H         0.0917215738       11.4540677403        1.5397743611
  O         8.9251396776        9.8102678127        0.6853917751
  H         9.5407618134        9.4092622100        1.3256942124
  H         8.3618722190       10.4513077740        1.2264387899
  O         9.1975377597        6.8397666728        9.5371213319
  H         9.6877889783        6.7233708507       10.3731850290
  H         8.4343758495        7.4225109959        9.8272192613
  O         1.5474686032        6.4156938483        5.0006442808
  H         2.3209412234        5.7383835852        4.9094700774
  H         1.9816642022        7.3386288603        4.9143050750
  O         1.2932175875        6.1493982918       10.2675855959
  H         0.4333523838        6.1013395072       10.6948541564
  H         1.2467306726        6.9418682257        9.6990567549
  O         5.9647009527        6.5656896752        8.2542175840
  H         6.7355227077        6.4476561768        7.7197447899
  H         5.6137451815        5.6739511963        8.4475939433
  O        11.6058517142        2.7957089557        7.1348518431
  H        10.7711579688        2.2622862609        6.9000517682
  H        11.4556379567        2.9500106290        8.1209877233
  O         4.2724210566        7.3041548169       10.7033341291
  H         4.8143184069        7.3536955148        9.9144653899
  H         3.4681089043        6.7911890065       10.4438851100
  O         8.2070922026        5.3950163184        5.2278444525
  H         9.0186022087        4.9102449692        5.4752054183
  H         7.9622552679        5.0461965314        4.3263569384
  O         4.3343217814        4.2786583197        9.0369144871
  H         3.9217287328        3.3982439187        9.2308185966
  H         3.9833673161        4.8055915590        9.7876718363
  O         1.2390445694        0.6750926302        6.3920179275
  H         0.5523841888        0.4218851089        5.7438189427
  H         0.7622917918        1.2712605136        7.0271927206
  O         7.5685511553        4.9310032477        2.5394925062
  H         8.1781504838        4.3317649372        2.0630772552
  H         7.5848865273        5.7264317152        1.9986968491
  O        10.7097132874        5.0679117125        1.7475215915
  H        10.9830998676        4.1986239777        2.1058653030
  H        10.3592153423        5.5647076181        2.5114714299
  O         1.3392779156        7.2643367557        1.5101131917
  H         0.9948963635        6.9884500678        0.6464747248
  H         2.0173850223        7.9371905630        1.3233489556
  O         9.1035463719        6.7659939715        0.2244923557
  H         8.8604253857        7.5731144679        0.7169150847
  H         9.8583876308        6.4142466722        0.6860914703
  O        11.3518038011        7.9534187115        7.9205339528
  H        10.3895463533        7.7825625273        8.0842833779
  H        11.7263520294        7.9705301843        8.8475960579
  O         9.2274678502       11.2196602760        7.5719876002
  H         9.4802904707       10.5207005112        8.2161818815
  H         8.9846170540       11.9869520223        8.1554710463
  O         6.1090878167        4.9251519123       -0.1831851395
  H         5.9491532216        3.9697867536       -0.0427096124
  H         5.2360024548        5.2869186055       -0.4164586404
  O        10.5597364695       11.0173515123        4.5697551680
  H        11.1074351811       10.9501212814        3.7585506092
  H         9.6839799658       11.3052906414        4.2651944181
  O         9.2122845341        8.5772351656        6.1341042521
  H         8.3522402377        8.5995973284        5.7116621531
  H         9.7127469665        9.3026024118        5.7353179621
  O         7.7022788446       12.1159979005        1.4805438227
  H         7.2353150848       12.5699948200        2.2458809194
  H         8.4821394660       12.7142224189        1.3315772205
  O         4.9439312900       12.0512979941        3.4306032531
  H         4.1005644134       11.9965891283        2.9491440765
  H         4.7684726314       11.7750765759        4.3556610825
     192
 i =       22, E =     -1102.0729412159
  O         3.9799406287        5.5989608124        2.7234292966
  H         3.1010836682        5.3508722238        2.2984940188
  H         4.6580142787        5.5615101137        2.0124824414
  O        12.1125324710       10.5537841476        7.3738409426
  H        11.6972898491        9.7029534833        7.4938057928
  H        11.4639078323       11.0953562232        6.9187267789
  O         1.7875467597       11.2690268576        4.1403034502
  H         1.7591295084       10.3810956160        3.7451036449
  H         2.5575677703       11.1843895052        4.7503280913
  O         1.6883891067        2.2707660775        3.9580391730
  H         2.0325673751        1.4419067294        4.3125415108
  H         1.8472824767        2.8655072522        4.7579531000
  O         8.8383005533        1.5015411683        8.5307342451
  H         8.5704986022        1.5734081110        7.5555418350
  H         8.4823184193        2.2953426683        8.9066857819
  O         9.3955936750        7.5613142578        3.1276329735
  H        10.2649521976        8.0077627202        3.3451671165
  H         9.2330729980        6.9985913665        3.9224693341
  O         2.2477098610        2.1759188549        9.3772511089
  H         2.4211758104        1.2671679338        9.6781122522
  H         1.7407094434        2.5390340818       10.1252371308
  O         7.7325198665       11.5208032867        5.2522683954
  H         7.7737245753       12.5001082967        5.2074424381
  H         8.1426609415       11.3175617601        6.1378443915
  O         1.9407370603        9.1981770961        6.3591610735
  H         1.1452722422        9.7968276030        6.2599208138
  H         1.6553325641        8.5476198505        7.0676347696
  O         3.6853872066       11.8610508883        6.8966675627
  H         2.7182709480       11.9104361298        6.8005783812
  H         4.0117229442       10.9897888136        7.0400642429
  O        11.0199660726        6.1367297114        5.3680792684
  H        10.3949693675        6.7844925518        5.8453531016
  H        11.8646308885        6.2936262943        5.8253648255
  O         3.0670682351        0.2847477394        1.3886005083
  H         3.5782864341        0.4082024047        0.5345272022
  H         2.1784961564        0.0149168342        1.0774211774
  O         5.7061921533        7.7676624177        1.2631295352
  H         4.9028877731        7.4718108218        1.6966305009
  H         6.2663398543        8.1813873472        2.0251516931
  O         4.7133832618       10.3580997306        0.1845732092
  H         4.2257719848       10.4161264001        1.0449294066
  H         5.0814099134        9.4121260322        0.2109356366
  O        11.5517311613        0.7465149187        9.6184006176
  H        10.7458355716        0.8165136655        9.0945210510
  H        11.8681427025       -0.1857917845        9.4343992542
  O         6.8504583226        1.8637129620        3.2064853508
  H         6.4017876849        2.0755071929        2.3475156162
  H         6.0772975549        1.5550221441        3.7397813635
  O         6.8184843360        9.6873709106        3.3524606741
  H         6.1855789843       10.2736640220        2.8967063401
  H         7.3518016739       10.3356171911        3.8764109452
  O         5.5783731294        1.4744742867        6.0507505530
  H         5.1422856442        2.2688059359        6.4042327887
  H         5.3689555260        0.7201103656        6.5906301068
  O         7.9700991877        4.0811946745        9.8790547256
  H         8.4809140565        4.8571196262        9.6932243289
  H         7.2253010368        4.4291761172       10.4005388096
  O         0.8742713247       10.1191006847        0.4551803796
  H         1.4336442287       10.5116534258       -0.1805759032
  H         0.2716165648        9.5961559859        0.0004804692
  O         7.1585763120        8.4524094267       10.9239881505
  H         7.7524373355        8.9394876173       11.5268906420
  H         6.8065838574        7.7108857490       11.5037988979
  O         2.8093271867        9.9647823227        9.5510373628
  H         3.4206783901        9.2540681571        9.2729157342
  H         2.6852731886       10.5347518466        8.7526173456
  O        11.1392340627        3.0919752270        4.0516131061
  H        11.2407779498        3.8290794746        4.6986770607
  H        11.9561592507        2.5609068580        4.1696266008
  O         8.2543752990        2.0973025938        5.7956375883
  H         7.2688196482        2.0026905322        5.8576859104
  H         8.4353920377        2.2997797310        4.8723654681
  O         5.8200261389        6.8928916642        4.5053381807
  H         6.7535862750        7.0813593034        4.5218870231
  H         5.6534571016        6.0298005046        4.8023836272
  O         9.9648931426        1.4752213460        1.6193713627
  H         9.8899065354        1.8944689014        2.5316630047
  H        10.7483034982        0.8862076149        1.7019649310
  O         9.7870325558       10.3244170247       10.2670345254
  H        10.1852822776       10.5287956276       11.1404043290
  H         8.8459732489       10.5590179025       10.4190875340
  O         1.3951723538        4.5163418168        2.1289961901
  H         1.2547831095        3.6718198513        2.6317888879
  H         0.8200017220        5.2276873408        2.6017187245
  O         2.2828099512        3.7261661945        6.5731666031
  H         2.7719293420        2.9546510241        6.9134144847
  H         1.5733862875        3.8172542572        7.2404027913
  O         7.1964144348       11.6894037825       10.8822053000
  H         7.6550062690       12.5425680457       10.8124357287
  H         6.8744337274       11.6079130535       11.8149020765
  O        12.1163438042        8.5400519638        3.4363897725
  H        12.1816564487        7.8332588541        4.1515235344
  H        12.6313497551        8.1463769071        2.6724945217
  O         1.1322063594        2.2344493504       -0.0945214959
  H         1.6949395239        2.0582943351        0.6795668531
  H         0.2101957018        2.1588884280        0.2298640971
  O         5.4288182913        9.1826412155        6.1719312929
  H         5.8550118286        9.5747331793        5.3838811439
  H         5.5336944839        8.2139899974        6.0118555477
  O        11.3355981689        4.7672400446        9.4164679844
  H        12.1867166804        5.0775330735        9.0695530386
  H        10.6331094239        5.0366084725        8.8522774939
  O         3.2400188873        4.3984650962       11.9865986897
  H         3.5577863094        3.7142708360       12.6052715639
  H         2.2934134491        4.4885714739       12.1935562174
  O         2.7279011232        6.9583331609        7.8934454329
  H         2.4590708677        6.2442282618        7.2488061931
  H         3.4681807921        7.4025604605        7.4243082197
  O         3.7458663125       12.4239590651       10.9812512195
  H         4.3373017404       12.6546500866       10.2379614893
  H         4.0821784582       11.5168264239       11.2589616711
  O         4.4845263670        2.7983765717        1.7145576814
  H         3.8238445047        2.2357110672        2.1516747040
  H         4.6192841973        3.5663512237        2.2991198614
  O         0.2321484867        9.1835414588       10.2448483495
  H         1.1700446712        9.4177104700        9.9772084439
  H        -0.3165035691        9.8441479426        9.7691537477
  O         3.6609506147        8.6856147437        3.8381899856
  H         3.9282394368        7.8416117684        3.7417931972
  H         3.6265924161        8.9547178450        4.7113814282
  O         5.0926896391        4.4117146793        5.9489400536
  H         5.9680074196        4.4757217538        6.3803262792
  H         4.4412225850        4.6569400530        6.6351085584
  O         6.1565696068       11.3455552922        8.2007245244
  H         6.2740780024       11.3716192371        9.2561324944
  H         6.7614366778       10.5918161731        7.9621622945
  O        -0.1736268576       12.2137388257        2.1135957755
  H         0.4666185506       12.2670352362        2.8324626923
  H         0.0908176225       11.4387768054        1.5183720393
  O         8.9292185771        9.8067769919        0.6861719759
  H         9.5408229756        9.4153286638        1.3304625748
  H         8.3637544066       10.4502101658        1.2219671934
  O         9.1741499149        6.8343017706        9.5276450164
  H         9.6619720819        6.7341713875       10.3923704804
  H         8.4547595142        7.4166465488        9.8307104408
  O         1.5803791091        6.4236967231        4.9746761971
  H         2.2841212354        5.7632371234        4.9189508264
  H         1.9908683305        7.3033384172        4.9236202748
  O         1.3092150581        6.1701269108       10.2781962820
  H         0.4049158394        6.0827500479       10.6962192519
  H         1.2622547147        6.9459658973        9.6937130361
  O         5.9312475841        6.5663302259        8.2473365530
  H         6.7846285780        6.4474414160        7.7323581844
  H         5.5944566113        5.6654046709        8.4444276154
  O        11.5625132135        2.7905286423        7.1646638281
  H        10.8001042150        2.2688568812        6.8927078533
  H        11.4783346773        2.9493268976        8.1035081322
  O         4.2577052078        7.2513163065       10.7138752334
  H         4.8339468147        7.3881188508        9.8954821258
  H         3.4651757749        6.8054104899       10.4458512177
  O         8.1938422256        5.3962795926        5.2242723163
  H         9.0269805715        4.9095960333        5.5027614651
  H         7.9521956413        5.0534554276        4.3008864535
  O         4.3254782909        4.2773992598        9.0413040413
  H         3.9204555059        3.3963588660        9.2288100511
  H         3.9836667088        4.8059320013        9.7843463757
  O         1.2318651979        0.6778008543        6.4052442766
  H         0.5535235309        0.4101629650        5.7589681144
  H         0.7548418414        1.2727001639        7.0141563539
  O         7.5808474802        4.9228349361        2.5278661715
  H         8.1892475668        4.3302361168        2.0898821601
  H         7.5630181609        5.7336935211        1.9721761120
  O        10.7198261106        5.0719883811        1.7647902533
  H        10.9769842227        4.2030036420        2.1086035392
  H        10.3597035313        5.5627823913        2.5258515162
  O         1.3316530174        7.2857145524        1.5216101640
  H         1.0046241173        6.9750403781        0.6269841996
  H         2.0170709769        7.9438936677        1.3232803616
  O         9.0873110872        6.8126878264        0.1701063484
  H         8.8275713456        7.5794941841        0.7055789909
  H         9.8923779799        6.3476941240        0.7208859288
  O        11.3640793783        7.9222009628        7.9514700346
  H        10.4055141197        7.7832505729        8.0931763477
  H        11.7096268167        7.9961292385        8.8288237346
  O         9.2228894865       11.2289934651        7.5742402850
  H         9.4786219030       10.5281614998        8.2130201863
  H         8.9852490596       11.9834907711        8.1613140259
  O         6.1186526111        4.9277972964       -0.1915933195
  H         5.9369337142        3.9842317909       -0.0405209935
  H         5.2257903108        5.2774759565       -0.4259536056
  O        10.5675066769       11.0048939825        4.5633232498
  H        11.1231251367       10.9372135245        3.7660825637
  H         9.6556608352       11.3251943003        4.2898175718
  O         9.2113297988        8.5665783682        6.1614908519
  H         8.3451125081        8.5988753681        5.6950215485
  H         9.7270119935        9.3122935735        5.7144197709
  O         7.6720686866       12.1461114527        1.4741435943
  H         7.2656847390       12.5492852889        2.2354153507
  H         8.4844342111       12.7161088720        1.3545739557
  O         4.9501516326       12.0551694203        3.4290703648
  H         4.0916382070       11.9967306626        2.9543203800
  H         4.7689571141       11.7819141661        4.3515894542
     192
 i =       23, E =     -1102.1245156972
  O         3.9731286266        5.6048249154        2.7075118728
  H         3.1179822397        5.3402062179        2.3043058644
  H         4.6528129937        5.5585155580        2.0092397555
  O        12.1517224665       10.5546553334        7.3641360629
  H        11.6799531976        9.6855949890        7.5116638637
  H        11.4391277624       11.0975773951        6.9195468726
  O         1.7961723590       11.2647860821        4.1437305560
  H         1.7506851587       10.3799438498        3.7367080068
  H         2.5396348861       11.2015763754        4.7613642157
  O         1.7060433078        2.2919062340        3.9719412346
  H         2.0222509330        1.4185970957        4.3018604204
  H         1.8307798042        2.8697651197        4.7605651534
  O         8.8573080330        1.5037178518        8.5157644065
  H         8.5762647510        1.5753903737        7.5593540481
  H         8.4761519541        2.3029141021        8.9462744683
  O         9.4052966390        7.5601261281        3.1428969314
  H        10.2666728792        7.9968775681        3.3337488808
  H         9.2390195381        6.9961266393        3.9135536029
  O         2.2556953135        2.1793644917        9.3741642072
  H         2.4234639484        1.2685048639        9.6731885733
  H         1.7483535480        2.5403356101       10.1259962566
  O         7.7356252498       11.5237473224        5.2536468846
  H         7.7767180447       12.5026327081        5.2110507181
  H         8.1417244356       11.3142808634        6.1322526284
  O         1.9346546145        9.2053053207        6.3766185656
  H         1.1516936005        9.7883388923        6.2673111118
  H         1.6745648870        8.5471220597        7.0540836711
  O         3.6964582816       11.8819103138        6.8651975488
  H         2.7104678454       11.9156739365        6.7989897474
  H         3.9979247596       10.9630833075        7.0527296888
  O        11.0147972659        6.1604925422        5.3706056923
  H        10.3944201887        6.7769102947        5.8435010495
  H        11.8752224777        6.2877022590        5.8155009062
  O         3.0643513915        0.2872380487        1.3846647433
  H         3.5762548276        0.4036770016        0.5390417021
  H         2.1783826954        0.0127877211        1.0788690972
  O         5.7255657653        7.8176358636        1.2687645168
  H         4.9023225614        7.4607817015        1.7064326519
  H         6.2661256881        8.1599310200        2.0145276953
  O         4.7307947166       10.3338106522        0.2058399410
  H         4.2230249117       10.4191117759        1.0289581565
  H         5.0670207341        9.4281827838        0.1895000251
  O        11.5795623512        0.7343798345        9.6038773729
  H        10.7179742680        0.8243787116        9.1105094422
  H        11.8544036186       -0.1820224393        9.4332462461
  O         6.8313089693        1.8730312070        3.2048030645
  H         6.3994003361        2.0782784945        2.3534573650
  H         6.0867296362        1.5571302554        3.7417927823
  O         6.8188154806        9.6946676561        3.3564212985
  H         6.1793246644       10.2779937829        2.9068070784
  H         7.3516148237       10.3307055633        3.8834809005
  O         5.6116198948        1.4854818393        6.0385273945
  H         5.1417855778        2.2724221982        6.3871247728
  H         5.3433964220        0.7125768186        6.6109359192
  O         7.9536985930        4.0554192126        9.8667734883
  H         8.4713327853        4.8914207097        9.7068846475
  H         7.2341845529        4.4136523554       10.3920474306
  O         0.8555011144       10.1846992592        0.5232752195
  H         1.4736502008       10.5049070832       -0.2103073834
  H         0.2732187698        9.5539270384       -0.0550492884
  O         7.1389274862        8.4444368881       10.9348444921
  H         7.7517574579        8.9307850048       11.5218880602
  H         6.8191036361        7.7177678659       11.4941237273
  O         2.8081328678        9.9634168344        9.5474572721
  H         3.4229806890        9.2471720283        9.2815063409
  H         2.6854918091       10.5230856562        8.7522313221
  O        11.1355687765        3.0922077565        4.0542479987
  H        11.2387492504        3.8220925821        4.7008984477
  H        11.9620885135        2.5657871001        4.1767385066
  O         8.2525686303        2.0817194794        5.8048142042
  H         7.2641663481        1.9950140199        5.8637940191
  H         8.4368863317        2.3061986365        4.8752499408
  O         5.7799836477        6.9540200217        4.5240626138
  H         6.7806880949        7.0680301510        4.5171188198
  H         5.6594734483        5.9690825981        4.8006788553
  O         9.9762956183        1.4862859306        1.6306984663
  H         9.8963717053        1.8736877052        2.5256126675
  H        10.7540745275        0.8847966445        1.7217324163
  O         9.7836011655       10.3282980830       10.2615525467
  H        10.1783345643       10.5228912938       11.1426826281
  H         8.8426929542       10.5644815100       10.4188832946
  O         1.3823867530        4.5275659952        2.1221239987
  H         1.2722858849        3.6875612701        2.6370118431
  H         0.8383702037        5.2071891917        2.6026219066
  O         2.2829450754        3.7221186370        6.5661531851
  H         2.7693389826        2.9533913452        6.9176241379
  H         1.5621485573        3.8083159093        7.2237017569
  O         7.1855288652       11.6927049953       10.8859353972
  H         7.6606894934       12.5460211924       10.8244521493
  H         6.8795637094       11.6205797375       11.8098809948
  O        12.1084206941        8.5283087456        3.4377271884
  H        12.2060343363        7.8586256603        4.1388214701
  H        12.6184262221        8.1325384836        2.6799552381
  O         1.1229357940        2.2271235459       -0.1026549427
  H         1.6837210449        2.0541088749        0.6742122918
  H         0.2052255496        2.1544792356        0.2256657993
  O         5.4267952587        9.1929339247        6.1723233140
  H         5.8504116487        9.5745802301        5.3743329326
  H         5.5402336691        8.2213871251        6.0067241756
  O        11.3361839270        4.7173519277        9.4287578086
  H        12.1930145210        5.1024973755        9.0714236450
  H        10.6342383217        5.0776130956        8.8323908932
  O         3.2404954989        4.4009990212       11.9879511856
  H         3.5566067272        3.7212191688       12.6024753435
  H         2.2953173931        4.4835761203       12.1932762612
  O         2.7419855185        6.9494516017        7.8886355350
  H         2.4556519534        6.2603756280        7.2640936918
  H         3.4799737106        7.4015127156        7.4297718500
  O         3.7597764390       12.4194418945       10.9904733758
  H         4.3451160362       12.6592075126       10.2462780964
  H         4.0813065239       11.5155501294       11.2540082523
  O         4.5080415113        2.8003275272        1.7038444475
  H         3.8097958025        2.2376620531        2.1353634408
  H         4.6004005374        3.5712816725        2.3135001688
  O         0.2312231792        9.1813300472       10.2440446523
  H         1.1670970513        9.4196155619        9.9751668401
  H        -0.3188944241        9.8424488934        9.7748594465
  O         3.6237301145        8.6932364320        3.8244543456
  H         3.9458993121        7.8285576731        3.7347644008
  H         3.6289433063        8.9561462167        4.7213587996
  O         5.0926415867        4.4018686938        5.9474282184
  H         5.9703905539        4.4821304432        6.3737057102
  H         4.4498549779        4.6569030099        6.6440446244
  O         6.2033644577       11.3477638405        8.2364393523
  H         6.2548550564       11.3846290026        9.2273306813
  H         6.7457644140       10.5766000050        7.9615636271
  O        -0.1706457746       12.2217888015        2.0884894856
  H         0.4706248817       12.2437678090        2.8349634682
  H         0.0947914629       11.4555641241        1.5339517263
  O         8.9325150714        9.8275686328        0.6821859285
  H         9.5277340305        9.4110359278        1.3475032038
  H         8.3759890750       10.4349593519        1.2109886783
  O         9.1686668670        6.8344417044        9.5561963857
  H         9.6626035336        6.7318559807       10.3730163975
  H         8.4332109781        7.4168913735        9.8221663645
  O         1.5672707906        6.4182949517        4.9839662995
  H         2.2914318859        5.7602029390        4.9123526494
  H         1.9988838043        7.3092941097        4.9118100358
  O         1.2982471914        6.1609506398       10.2792649514
  H         0.4061178653        6.0959212989       10.6923491722
  H         1.2596783908        6.9437241796        9.7000472129
  O         5.9095526225        6.5865809612        8.2440344074
  H         6.7915367334        6.4482910808        7.7455359685
  H         5.6064754000        5.6491839631        8.4570519494
  O        11.5906112106        2.7885583363        7.1473746191
  H        10.7921357885        2.2665481514        6.9001084631
  H        11.4635456765        2.9508553904        8.1167638586
  O         4.2677833069        7.2883333130       10.7024289780
  H         4.8283742018        7.3603687720        9.9015683242
  H         3.4642877908        6.7990048203       10.4418078328
  O         8.1946706596        5.3873263670        5.2260753448
  H         9.0078592535        4.9146680823        5.4800067000
  H         7.9581911139        5.0468621592        4.3184991611
  O         4.3201505414        4.2766640249        9.0415731654
  H         3.9123779286        3.4016880853        9.2244927785
  H         3.9786887750        4.8038266115        9.7832108072
  O         1.2249201514        0.6857626185        6.4056817382
  H         0.5531770511        0.3866457473        5.7749239942
  H         0.7434743503        1.2730225191        7.0182560357
  O         7.5728593648        4.9212807956        2.5581545867
  H         8.1844093637        4.3317011499        2.0667085881
  H         7.5556593935        5.7312548849        1.9528104480
  O        10.7263333775        5.0822398196        1.7729847705
  H        10.9864101493        4.2089492423        2.1140627286
  H        10.3635579127        5.5717639375        2.5355732025
  O         1.3386264535        7.2769279947        1.5067074139
  H         1.0018354880        6.9857971332        0.6406376931
  H         2.0130958321        7.9564537374        1.3205424269
  O         9.0947405819        6.7598367609        0.1886728906
  H         8.8558554222        7.5591229976        0.7008035390
  H         9.8507942292        6.3729471871        0.6884790407
  O        11.3629522666        7.9258212331        7.9427799278
  H        10.4034492873        7.7778756428        8.1029978151
  H        11.7318603719        7.9794805783        8.8374200247
  O         9.2162591082       11.2300609765        7.5848609917
  H         9.4715507256       10.5301852729        8.1972158434
  H         8.9824193977       11.9879274320        8.1580281606
  O         6.1167125622        4.9333054236       -0.2092497585
  H         5.9376693903        3.9864389242       -0.0355599478
  H         5.2346477365        5.2930417954       -0.4434488023
  O        10.5646653428       11.0099254201        4.5857360492
  H        11.1107314986       10.9248878289        3.7759647134
  H         9.6771754838       11.3232631345        4.2957237723
  O         9.2223714740        8.5781721716        6.1330598509
  H         8.3559884937        8.5983046993        5.6980643042
  H         9.7229386383        9.3018783891        5.7243186698
  O         7.6913101675       12.1375209402        1.4673454470
  H         7.2355268966       12.5602005746        2.2305085766
  H         8.4930373908       12.7138757148        1.3452233222
  O         4.9452120267       12.0571946058        3.4343020913
  H         4.0926294746       12.0077781130        2.9510702542
  H         4.7587489789       11.7855495241        4.3477565575
     192
 i =       24, E =     -1102.0526682427
  O         3.9810952787        5.6103869360        2.7118027351
  H         3.1262528612        5.3375503361        2.2892109239
  H         4.6500495807        5.5529100824        1.9947254302
  O        12.0935891990       10.5567667929        7.3775331654
  H        11.6907156678        9.6835644316        7.5228963963
  H        11.4658238679       11.0939384614        6.9136879784
  O         1.7911169670       11.2718912143        4.1441301768
  H         1.7457056030       10.3726252261        3.7224003946
  H         2.5269339881       11.2177657150        4.7715622993
  O         1.7215457729        2.3157494624        3.9770400863
  H         2.0080630616        1.4037791977        4.2872382152
  H         1.8196407648        2.8699305171        4.7686031077
  O         8.8872216707        1.5208758623        8.4847110175
  H         8.5921216627        1.5649833970        7.5760500957
  H         8.4696947719        2.3259198902        8.9983652482
  O         9.4092908479        7.5522227305        3.1210500226
  H        10.2751849515        7.9909816459        3.3158640905
  H         9.2371949838        6.9993707184        3.9284751805
  O         2.2782339514        2.1954201231        9.3651417419
  H         2.4218251387        1.2635677615        9.6599207563
  H         1.7561660727        2.5412683236       10.1298189916
  O         7.7366203128       11.5276675709        5.2409340451
  H         7.7807650732       12.5084275272        5.2298557474
  H         8.1327959534       11.3104622376        6.1336413697
  O         1.9520550154        9.2079102611        6.3892067703
  H         1.1458117525        9.7837488965        6.2970557787
  H         1.7027850276        8.5494470866        7.0282007493
  O         3.6957216097       11.8786684203        6.8482935011
  H         2.7101832172       11.9269966500        6.7893289257
  H         3.9884440507       10.9474761266        7.0448669102
  O        11.0033382905        6.2106920856        5.3731363471
  H        10.3951789082        6.7547969564        5.8454963283
  H        11.8900202394        6.2760460025        5.7997136340
  O         3.0515400447        0.2898247468        1.3755798001
  H         3.5720368580        0.3988388775        0.5608083663
  H         2.1699172636        0.0074432369        1.0781821460
  O         5.7257590749        7.8306245550        1.2695921332
  H         4.9421998030        7.5014232049        1.7164444227
  H         6.2550679902        8.1335663591        1.9951537169
  O         4.7237608072       10.3505631398        0.1830686231
  H         4.2308352819       10.4261261258        1.0173652312
  H         5.0866032003        9.4244219971        0.1942741299
  O        11.5825256101        0.7361206862        9.6025196604
  H        10.7178060509        0.8221131022        9.1277409411
  H        11.8373753808       -0.1795144782        9.4115625280
  O         6.8483425055        1.8745444221        3.2021750254
  H         6.3749995243        2.1069499716        2.3517630234
  H         6.0737284160        1.5717817175        3.7460196887
  O         6.8168442564        9.6942286991        3.3643638037
  H         6.1749082359       10.2822972786        2.9287814793
  H         7.3491801604       10.3231404758        3.8933718085
  O         5.6115212346        1.4765851269        6.0348853886
  H         5.1410483870        2.2794657722        6.3633631233
  H         5.3439055919        0.7171200610        6.6223162114
  O         7.9657243002        4.0747979818        9.8299744166
  H         8.4872232153        4.8928294618        9.6841669010
  H         7.1696797583        4.3910960682       10.4557666122
  O         0.8910711304       10.1276504383        0.4475805662
  H         1.4680527515       10.5198649602       -0.1858365446
  H         0.2855509041        9.6036973364       -0.0376291072
  O         7.1332921356        8.4288902430       10.9192714385
  H         7.7463062060        8.9175240829       11.5226313977
  H         6.7978945757        7.7127449976       11.5139500540
  O         2.8027570202        9.9574814791        9.5478181269
  H         3.4252517320        9.2445911760        9.2845975844
  H         2.6895232788       10.5074465221        8.7427518102
  O        11.1425053383        3.0956226163        4.0681212343
  H        11.2467178868        3.8178069378        4.7213346144
  H        11.9547192403        2.5686602845        4.1771381034
  O         8.2611876310        2.0593818840        5.8252164753
  H         7.2644656324        1.9890268611        5.8747734543
  H         8.4433193212        2.3247480309        4.8805347067
  O         5.8361988137        6.8605008354        4.5200260241
  H         6.7316955520        7.0706555648        4.5317932308
  H         5.6390585914        6.0294708403        4.8097717042
  O         9.9926440381        1.4939789620        1.6450345367
  H         9.9063161758        1.8565005939        2.5191893724
  H        10.7672712665        0.8843434924        1.7442537555
  O         9.7873689622       10.3166682819       10.2706493624
  H        10.1621688460       10.5262083894       11.1330750956
  H         8.8479919442       10.5698837291       10.4184384048
  O         1.3405518676        4.5592236262        2.1194036835
  H         1.2985453192        3.7280297583        2.6188855315
  H         0.8690121217        5.1570386649        2.6224115024
  O         2.2826999821        3.7142095756        6.5526428876
  H         2.7642033156        2.9505792029        6.9264937303
  H         1.5417964242        3.7913187072        7.1937259188
  O         7.1928959234       11.6921896502       10.8775816563
  H         7.6484800936       12.5501805756       10.8465122631
  H         6.8768722054       11.6451341267       11.8134533541
  O        12.1110464077        8.5275109948        3.4345785472
  H        12.2427185848        7.8833364376        4.1225991589
  H        12.5812247813        8.1040453361        2.6995385411
  O         1.1049766081        2.2192521924       -0.1172711824
  H         1.6634128806        2.0497091569        0.6631716900
  H         0.2020088513        2.1439482623        0.2225352982
  O         5.4496821315        9.1888432419        6.1888895932
  H         5.8367476956        9.5675118450        5.3683235116
  H         5.5264805388        8.2564244045        5.9908618981
  O        11.3664962924        4.7293880908        9.4432681678
  H        12.1561471923        5.0777177293        9.0485828055
  H        10.6678431743        5.1163865494        8.8330678481
  O         3.2358089515        4.4177011760       11.9389563379
  H         3.5638139567        3.7371661087       12.6360182159
  H         2.2896885181        4.4779081004       12.1955338070
  O         2.7525894517        6.9532546616        7.8918100219
  H         2.4567655993        6.2740282538        7.2806513075
  H         3.4991612789        7.3909539320        7.4363681784
  O         3.7975254802       12.4037917117       11.0158360442
  H         4.3610836455       12.6618380911       10.2645724687
  H         4.0719104182       11.5096749431       11.2410610775
  O         4.4912342186        2.8153403363        1.6998414619
  H         3.8407150429        2.2320113529        2.1103176306
  H         4.5745337775        3.5697827518        2.3341769852
  O         0.2313885117        9.1837975864       10.2468780481
  H         1.1613492641        9.4128322804        9.9797563674
  H        -0.3273816990        9.8468758308        9.7887875930
  O         3.3820197818        8.7107626969        3.7693490692
  H         4.0847426311        7.8147358521        3.7231603401
  H         3.6969757159        8.9685349897        4.7604630069
  O         5.0936113285        4.3755237111        5.9446886444
  H         5.9771747784        4.4900731991        6.3627824815
  H         4.4683759442        4.6615285492        6.6519341732
  O         6.2717504524       11.3513486368        8.2566734194
  H         6.2551871300       11.3947146753        9.1750268810
  H         6.7088115160       10.5636211722        7.9837395434
  O        -0.1724833036       12.2276481871        2.0894439043
  H         0.4818940234       12.2286003325        2.8336480943
  H         0.1079916502       11.4692132751        1.5362631210
  O         8.9442826163        9.7954571269        0.6879426236
  H         9.5336797381        9.4096531641        1.3592925170
  H         8.3733607530       10.4577079804        1.1945061301
  O         9.1959538219        6.8386990912        9.4930994347
  H         9.6589048556        6.7296991760       10.4237802704
  H         8.3656779178        7.4182671277        9.8360357487
  O         1.5607367122        6.4179324696        4.9894994214
  H         2.3071116069        5.7538057946        4.8876433166
  H         1.9915645810        7.3098524029        4.9039369616
  O         1.2669637018        6.1332470024       10.2786250488
  H         0.4181489723        6.1272527858       10.6922595544
  H         1.2536019340        6.9337127301        9.7140846875
  O         5.9865175483        6.5438044205        8.2799979511
  H         6.6953389881        6.4671782310        7.7361133812
  H         5.6201098450        5.6892352160        8.4642326236
  O        11.6010588322        2.7844848267        7.1212296929
  H        10.7870256002        2.2594849918        6.9108674394
  H        11.4500490184        2.9534934007        8.1100097011
  O         4.2829960180        7.3358975374       10.6908483200
  H         4.8203913032        7.3040001163        9.9196027131
  H         3.4691065795        6.8061858951       10.4341968708
  O         8.1848543325        5.3740781057        5.2170241357
  H         8.9820560178        4.9183957803        5.4554822710
  H         7.9608593259        5.0246121026        4.3401021917
  O         4.3287080889        4.2714092352        9.0382688579
  H         3.8897560346        3.4013822258        9.2219751664
  H         3.9605039265        4.7987933586        9.7924206114
  O         1.2299267850        0.7056139607        6.3994165358
  H         0.5409927249        0.3452293485        5.8031059497
  H         0.7265702591        1.2739774072        7.0428889114
  O         7.5375404249        4.9220488936        2.4979499986
  H         8.1700733742        4.3409207021        2.0536267431
  H         7.5625061352        5.7045163685        2.0054168741
  O        10.7379465069        5.1040084047        1.7793333452
  H        11.0030982000        4.2220790895        2.1254028323
  H        10.3734754429        5.5876893010        2.5487090318
  O         1.3509734173        7.2754179187        1.5010692855
  H         1.0099757333        6.9961842916        0.6544645023
  H         2.0067195710        7.9715326555        1.3089147481
  O         9.1026076471        6.6986833377        0.2095568981
  H         8.8820747254        7.5321289182        0.6931805332
  H         9.8144831248        6.3769751403        0.6678197565
  O        11.3493839493        7.9360647680        7.9151343562
  H        10.3856532368        7.7645962889        8.1187673839
  H        11.7646598786        7.9441668706        8.8542670151
  O         9.2211219653       11.2334307037        7.5689629101
  H         9.4551941919       10.5314536505        8.2088834484
  H         8.9594435248       11.9928648129        8.1460534573
  O         6.1224108326        4.9338547705       -0.2329114923
  H         5.9405325265        3.9897429324       -0.0306092363
  H         5.2669236500        5.3172230884       -0.4682554546
  O        10.5539949449       11.0191350371        4.6194623702
  H        11.0892432593       10.9014500982        3.7988657375
  H         9.7103958300       11.3160247348        4.2982789188
  O         9.2376139707        8.5661858557        6.1378716262
  H         8.3687263330        8.6027586216        5.6946446075
  H         9.7338312687        9.3088247857        5.6932937760
  O         7.7047036835       12.1215528166        1.4557530871
  H         7.2005799493       12.5688694639        2.2177984827
  H         8.4934662732       12.7030847970        1.3291242705
  O         4.9403189068       12.0447727849        3.4381276323
  H         4.1025030171       12.0378541754        2.9485079973
  H         4.7443167584       11.7912971592        4.3681062474
     192
 i =       25, E =     -1102.1360403560
  O         3.9785324817        5.5985670361        2.7001196444
  H         3.1176016976        5.3392336967        2.2924651679
  H         4.6533673162        5.5475775768        2.0035611120
  O        12.1342617338       10.5478168635        7.3666959835
  H        11.6800701522        9.6688192879        7.5307108646
  H        11.4476809925       11.0849196589        6.9179413357
  O         1.7796759084       11.2752967979        4.1465199735
  H         1.7413807285       10.3875926236        3.7433528181
  H         2.5254234466       11.2080698656        4.7712441683
  O         1.6955817436        2.2988167991        3.9715131797
  H         2.0004817219        1.4266588578        4.2936623832
  H         1.8413702896        2.8595292103        4.7846627489
  O         8.8718709950        1.5104935797        8.5170207885
  H         8.5935799451        1.5893420685        7.5769844871
  H         8.4821563909        2.3045951486        8.9875444069
  O         9.4245318888        7.5448712404        3.1313811534
  H        10.2866701772        7.9776901710        3.3272626864
  H         9.2417468030        6.9939956121        3.9238145196
  O         2.2803458873        2.1953385491        9.3718078916
  H         2.4238765740        1.2622901554        9.6583995202
  H         1.7598702606        2.5427020857       10.1319920895
  O         7.7482975251       11.5265727997        5.2517577697
  H         7.7835012065       12.5057063707        5.2153585372
  H         8.1466371680       11.3130064931        6.1256508432
  O         1.9608699070        9.2004140871        6.3550700163
  H         1.1364542838        9.7866941039        6.2932928659
  H         1.7086752228        8.5430678877        7.0661182091
  O         3.6903105983       11.8717459060        6.8501326951
  H         2.7085917943       11.9330055741        6.7921736915
  H         3.9832399194       10.9601801414        7.0294304531
  O        11.0111952196        6.1708164114        5.3634061548
  H        10.4089420182        6.7946409573        5.8427428129
  H        11.8779938442        6.2831340167        5.7993227568
  O         3.0668888519        0.2939457941        1.3770793853
  H         3.5730953242        0.3951598290        0.5326841252
  H         2.1766126618        0.0106972333        1.0887882023
  O         5.7313681636        7.8118192873        1.2761287285
  H         4.9402435376        7.4778045932        1.7135248920
  H         6.2668808992        8.1788902057        2.0223262178
  O         4.7093911279       10.3377590557        0.1736327278
  H         4.2255230107       10.4173637890        1.0215547982
  H         5.0748324764        9.4068985524        0.1989882119
  O        11.5628168224        0.7353923502        9.6126691495
  H        10.7161147504        0.8251092223        9.1351004400
  H        11.8390336149       -0.1845029711        9.4022550777
  O         6.8337940861        1.8676156023        3.2097781717
  H         6.3847257087        2.0986379068        2.3647316389
  H         6.0797433535        1.5579410326        3.7495373452
  O         6.8101797420        9.6950052162        3.3702409770
  H         6.1716042316       10.2882911322        2.9343540481
  H         7.3540715486       10.3436019538        3.8850950518
  O         5.6088634824        1.4786705997        6.0389820954
  H         5.1522200472        2.2829660316        6.3614545014
  H         5.3491094596        0.7288374970        6.6150025478
  O         7.9570911000        4.0592020180        9.8238024578
  H         8.4776799678        4.8963856741        9.6890505448
  H         7.1933827368        4.3833682990       10.4295548801
  O         0.8802095067       10.1662887204        0.4782821271
  H         1.4859707019       10.5200601149       -0.1996827725
  H         0.2909516663        9.5936323688       -0.0651550269
  O         7.1489636901        8.4373386654       10.9190895094
  H         7.7574223559        8.9267462396       11.5146417429
  H         6.8006831601        7.7208883846       11.5027314742
  O         2.8009989569        9.9529528262        9.5487283592
  H         3.4218869373        9.2334159581        9.3032014968
  H         2.6917295326       10.5009347863        8.7517147422
  O        11.1422954500        3.0873024004        4.0607267322
  H        11.2292778261        3.8184671753        4.7140432350
  H        11.9613498920        2.5682741753        4.1713410426
  O         8.2487189910        2.0574265610        5.8184843654
  H         7.2566417632        1.9755073138        5.8723024049
  H         8.4311763937        2.3030039570        4.8869270702
  O         5.7753602490        6.9594103783        4.5462656238
  H         6.7775282998        7.0592616253        4.5247433379
  H         5.6537554324        5.9420433237        4.8029478072
  O         9.9912084781        1.4626488635        1.6457519173
  H         9.9074070895        1.8853449050        2.5352175466
  H        10.7763223101        0.8723111665        1.7489028163
  O         9.7736279363       10.3247064354       10.2663597093
  H        10.1587532872       10.5162928561       11.1385901358
  H         8.8356259799       10.5792601778       10.4164641194
  O         1.3920147620        4.5241205330        2.1309948306
  H         1.3184956117        3.6962019970        2.6302140863
  H         0.8471251376        5.2043183718        2.6021370678
  O         2.2780635135        3.7129072946        6.5515121705
  H         2.7632035704        2.9520361541        6.9228671963
  H         1.5379528727        3.7921763043        7.1895223619
  O         7.1943051494       11.7029002894       10.8902262308
  H         7.6646316914       12.5556673432       10.8425327611
  H         6.8750501342       11.6419642914       11.8173683062
  O        12.1229574716        8.5413316101        3.4288796554
  H        12.2122423748        7.8488007540        4.1295646314
  H        12.6036481046        8.1297457629        2.6794031887
  O         1.1069833940        2.2133702108       -0.1171572857
  H         1.6625221804        2.0447501808        0.6655986708
  H         0.1923875184        2.1473591784        0.2120752882
  O         5.4465505850        9.1970827625        6.1690645924
  H         5.8344446684        9.5833036154        5.3558505177
  H         5.5349728043        8.2492068128        5.9901804733
  O        11.3537109605        4.7539388971        9.4202510380
  H        12.1620010039        5.0809235718        9.0509637039
  H        10.6537542005        5.0942784900        8.8460561488
  O         3.2395899251        4.4013974265       11.9692012627
  H         3.5638025083        3.7293461286       12.6212166744
  H         2.2938476116        4.4799726346       12.1898967264
  O         2.7455146078        6.9706689484        7.8999808610
  H         2.4752567765        6.2586193279        7.2718587728
  H         3.5068338293        7.3927382327        7.4442239529
  O         3.7767255844       12.4152904554       11.0027742887
  H         4.3604003603       12.6707651732       10.2628238323
  H         4.0859009506       11.5140078705       11.2478699286
  O         4.4793139810        2.8236327437        1.7002159801
  H         3.8355607475        2.2298859642        2.0965450158
  H         4.5809579572        3.5714376094        2.3243391369
  O         0.2370750718        9.1776794410       10.2423827793
  H         1.1667864529        9.4213156152        9.9693037289
  H        -0.3335309615        9.8364751802        9.7851207400
  O         3.4712694900        8.7040907136        3.7838967199
  H         4.0265178464        7.8100033375        3.7220561214
  H         3.6578643069        8.9541191515        4.7476375759
  O         5.0919226589        4.3837603595        5.9566425766
  H         5.9803545073        4.4931604428        6.3643576421
  H         4.4616357844        4.6595783575        6.6536241321
  O         6.2052827646       11.3577097228        8.2316683058
  H         6.2982070617       11.3692802577        9.2400536711
  H         6.7059233510       10.5833621029        7.9705715699
  O        -0.1670100850       12.2238585722        2.1016858846
  H         0.4754906812       12.2413013879        2.8361240442
  H         0.1027513014       11.4621083973        1.5090943398
  O         8.9399390488        9.7924489764        0.6904226136
  H         9.5246044260        9.4088572966        1.3631335743
  H         8.3691610270       10.4693917824        1.1931209027
  O         9.1581523136        6.8294098655        9.5593635955
  H         9.6443999308        6.7347187397       10.3797685292
  H         8.4041127041        7.4068446457        9.8125913841
  O         1.5858491656        6.4202293767        4.9927240423
  H         2.2856985916        5.7658993443        4.8985189719
  H         1.9875027393        7.2982963072        4.9100827430
  O         1.2827215021        6.1552684448       10.2830035130
  H         0.3985780123        6.1129009714       10.6852234082
  H         1.2604920288        6.9452625599        9.7093227515
  O         5.9425059811        6.5510786172        8.2698084043
  H         6.7452427880        6.4683797802        7.7522863161
  H         5.6102226232        5.6616554200        8.4680922906
  O        11.5875261966        2.7813693017        7.1624957600
  H        10.8032647523        2.2750769557        6.9131326598
  H        11.4825921538        2.9505760379        8.1085490898
  O         4.2686839616        7.2984678070       10.6924988463
  H         4.8269881384        7.3415467181        9.8967175988
  H         3.4697224200        6.8152230180       10.4322289104
  O         8.1752617516        5.3815163638        5.2169436201
  H         9.0007091942        4.9145688717        5.5090616021
  H         7.9653129951        5.0362657111        4.3059836095
  O         4.3229506983        4.2844575194        9.0393896693
  H         3.8886379738        3.4072059314        9.2053907992
  H         3.9625103908        4.8039892745        9.7922229942
  O         1.2251783073        0.6949354395        6.3943466420
  H         0.5304142706        0.3412006421        5.7988767464
  H         0.7281000386        1.2633462557        7.0376517990
  O         7.5560603236        4.9247972102        2.5422969106
  H         8.1742456735        4.3381203576        2.0483436623
  H         7.5448147619        5.7237888380        1.9550793233
  O        10.7414200929        5.1016909820        1.7889815792
  H        11.0011509263        4.2230960987        2.1300732786
  H        10.3732075743        5.5833304086        2.5555407971
  O         1.3328928758        7.2944436503        1.5120368396
  H         1.0163468833        6.9816041878        0.6314286453
  H         1.9957465463        7.9759071971        1.3127932812
  O         9.0823903860        6.7543376497        0.1569502199
  H         8.8453866111        7.5445617683        0.6736779327
  H         9.8504413891        6.2975010405        0.6996175883
  O        11.3738819225        7.9227748371        7.9381312894
  H        10.4144023359        7.7693479704        8.1258888392
  H        11.7651803691        7.9588290760        8.8465391767
  O         9.2253710539       11.2345286782        7.5566419431
  H         9.4643356578       10.5367965688        8.2217500164
  H         8.9529235831       11.9891226568        8.1375087979
  O         6.1180990730        4.9454639073       -0.2392927496
  H         5.9274984900        4.0096668930       -0.0348389555
  H         5.2433727394        5.3116756750       -0.4781663139
  O        10.5711660369       11.0031504168        4.6112528876
  H        11.1096215725       10.8994120921        3.8006074866
  H         9.6912161172       11.3372528454        4.3248798432
  O         9.2327012872        8.5763183741        6.1309315171
  H         8.3678693823        8.6010882920        5.7014314160
  H         9.7326368268        9.3019839683        5.6960424038
  O         7.6954078017       12.1417252779        1.4500615131
  H         7.2269550244       12.5685832945        2.2050827933
  H         8.5012008496       12.7184515401        1.3521793306
  O         4.9344524976       12.0481947111        3.4197806490
  H         4.0863722067       12.0305784410        2.9371526328
  H         4.7421606252       11.8052848189        4.3562621795
     192
 i =       26, E =     -1102.0479406238
  O         3.9819313265        5.6022047458        2.6942264539
  H         3.1149668551        5.3398681604        2.2896400946
  H         4.6590717204        5.5543365372        1.9897098480
  O        12.1229974194       10.5518321192        7.3875183478
  H        11.6884285042        9.6884253992        7.4993083234
  H        11.4260869720       11.0827725294        6.9259146556
  O         1.7770701164       11.2733436521        4.1204418077
  H         1.7437314951       10.3834214215        3.7563213210
  H         2.5212813393       11.2023804476        4.7560547252
  O         1.7009058894        2.3003176172        3.9660443779
  H         2.0032159246        1.4430651825        4.2929940767
  H         1.8375405215        2.8566491479        4.7804586375
  O         8.8504023374        1.5218913066        8.5739375995
  H         8.6087906016        1.6347170570        7.5894250231
  H         8.5208005729        2.2931472894        8.9276491695
  O         9.4085535050        7.5545841685        3.1398244105
  H        10.2738884594        7.9803840625        3.3244358189
  H         9.2439568944        6.9956556869        3.8927632214
  O         2.2649898060        2.1749243951        9.3683523455
  H         2.4323243197        1.2768810823        9.6702261453
  H         1.7694735198        2.5510199615       10.1138147174
  O         7.7507541755       11.5259297412        5.2461126622
  H         7.7858628979       12.5060654248        5.2229499272
  H         8.1466929848       11.2967230645        6.1161943652
  O         1.9152753993        9.2377432899        6.4213913601
  H         1.1782397241        9.7716090098        6.2709540198
  H         1.7133313696        8.5502445710        7.0294638560
  O         3.7027878301       11.8684600961        6.8520449915
  H         2.7204082660       11.9271849256        6.7929387373
  H         3.9840741632       10.9533453572        7.0127989972
  O        11.0219662707        6.1513381709        5.3615494308
  H        10.4224427649        6.8040787557        5.8494611076
  H        11.8750172510        6.2809813013        5.8059895470
  O         3.0523770153        0.3012403623        1.3869779886
  H         3.5548698449        0.3905201892        0.5218738954
  H         2.1703644277        0.0144303819        1.0887255506
  O         5.7502778022        7.8469872521        1.2732562393
  H         4.9135066877        7.4516757239        1.7077270572
  H         6.2838262125        8.1929822236        2.0246059896
  O         4.7489365869       10.3258796270        0.2057125119
  H         4.2393167239       10.4275867218        1.0207546285
  H         5.0634849229        9.4361120511        0.1722477146
  O        11.5821767092        0.7270313362        9.5949295480
  H        10.7143656294        0.8397517192        9.1291833800
  H        11.8290628573       -0.1788584926        9.4116244197
  O         6.8245448227        1.8856861563        3.2084479278
  H         6.3957318449        2.0946150291        2.3733784583
  H         6.1014223086        1.5606219140        3.7547978406
  O         6.8044203600        9.6956446368        3.3692748147
  H         6.1555900225       10.2868496965        2.9441555811
  H         7.3523885395       10.3226454366        3.8935630847
  O         5.6133131564        1.4877480465        6.0254580900
  H         5.1535397375        2.2760819301        6.3568822569
  H         5.3395744896        0.7270122941        6.6123959506
  O         7.9159414667        4.0549551741        9.8949723547
  H         8.4237201455        4.8671786576        9.7292724419
  H         7.2694575721        4.4279906066       10.3315735330
  O         0.8783185988       10.1777515333        0.5089902867
  H         1.5019616345       10.5078907133       -0.2101445854
  H         0.2902129656        9.5871776073       -0.0826623114
  O         7.1280421417        8.4221238405       10.9444291739
  H         7.7440945140        8.9159687359       11.5149088525
  H         6.8217392778        7.7122954408       11.4961475380
  O         2.7925062747        9.9471563131        9.5543128428
  H         3.4062922537        9.2397538930        9.2990673339
  H         2.6892621633       10.4992446355        8.7432468779
  O        11.1383066932        3.1027204480        4.0611293980
  H        11.2366801206        3.8153903300        4.7190457823
  H        11.9629336086        2.5796105504        4.1681620075
  O         8.2504781755        2.0830834702        5.8016205037
  H         7.2645940837        1.9873693523        5.8682613762
  H         8.4273987117        2.2908209042        4.8829407253
  O         5.8242326141        6.8645043308        4.5172262516
  H         6.7360097162        7.0580414181        4.5219674209
  H         5.6249613181        6.0297763172        4.8086313953
  O         9.9910752171        1.4646911692        1.6410282850
  H         9.9002905003        1.8829558968        2.5280514639
  H        10.7820154321        0.8858840955        1.7409451521
  O         9.7726728980       10.3357268114       10.2566869535
  H        10.1681392056       10.5081174376       11.1523788889
  H         8.8336634205       10.5756887603       10.4140065967
  O         1.4007236134        4.5336489691        2.1098580616
  H         1.3085973843        3.6998951622        2.6605575528
  H         0.8318720360        5.1981537307        2.5894675304
  O         2.2684057353        3.7076245770        6.5426078169
  H         2.7615992523        2.9582057935        6.9241370629
  H         1.5272040464        3.7910692430        7.1738953883
  O         7.1939033606       11.7060513331       10.8942632800
  H         7.6477109949       12.5576900560       10.8317961051
  H         6.8844247441       11.6249571972       11.8215062550
  O        12.1022910372        8.5211771666        3.4466961950
  H        12.2083713821        7.8666978745        4.1562256282
  H        12.6194472933        8.1402449376        2.6562559565
  O         1.1069532427        2.2112893799       -0.1177414726
  H         1.6693970850        2.0566105994        0.6598649870
  H         0.1853169228        2.1465606960        0.2073712285
  O         5.4243864487        9.2141608605        6.1651693040
  H         5.8355097220        9.5973651996        5.3625408748
  H         5.5437506003        8.2195615766        6.0041662524
  O        11.3346518628        4.7064079688        9.3981944707
  H        12.2294582057        5.1276328322        9.0594909389
  H        10.6185262323        5.0856997356        8.8518632595
  O         3.2460154849        4.4061341492       12.0219750011
  H         3.5640072606        3.7361287389       12.5699354112
  H         2.2995334502        4.4906845720       12.1799307804
  O         2.7554042471        6.9595801501        7.8967210258
  H         2.4584911641        6.2652765326        7.2881162049
  H         3.5084543573        7.3864391118        7.4428348318
  O         3.7665091923       12.4219327551       11.0032963236
  H         4.3697462273       12.6643872190       10.2727655778
  H         4.1019634384       11.5021730193       11.2562550367
  O         4.5052591733        2.8306477296        1.7113179375
  H         3.8119524191        2.2133101752        2.0912849694
  H         4.5781973969        3.5779542843        2.3501817185
  O         0.2320906984        9.1706408130       10.2411140508
  H         1.1631673844        9.4198353496        9.9710852334
  H        -0.3183501830        9.8361543066        9.7884174084
  O         3.7212694900        8.7056313921        3.8124005393
  H         3.8649337480        7.8199438378        3.7364953939
  H         3.5846315132        8.9500948531        4.7003888346
  O         5.1134628023        4.3846946356        5.9599628193
  H         5.9846678752        4.4822099123        6.3749486414
  H         4.4685976644        4.6542494531        6.6460156335
  O         6.1888322311       11.3612040309        8.2411553084
  H         6.2948216238       11.3891473905        9.2483220720
  H         6.7250567687       10.5672182511        7.9193924742
  O        -0.1478353810       12.2108025917        2.0865876750
  H         0.4744198661       12.2420862516        2.8307409431
  H         0.1075005011       11.4486804080        1.5451330667
  O         8.9461257168        9.8420035261        0.6841177972
  H         9.5166135981        9.4160275874        1.3707457527
  H         8.3949973535       10.4074186784        1.1911278794
  O         9.1449209071        6.8263759633        9.5140244843
  H         9.6200272110        6.7485640205       10.4283485233
  H         8.4141423727        7.4101545983        9.8343528334
  O         1.5369956591        6.4127369731        4.9997491902
  H         2.3065983526        5.7458686704        4.8778653893
  H         2.0184692936        7.3182488737        4.8969655359
  O         1.2991934018        6.1669750573       10.2995653605
  H         0.3754911756        6.1016830289       10.6927776666
  H         1.2757773810        6.9398553071        9.7086063667
  O         5.8649920305        6.6011181740        8.2414099618
  H         6.8182244822        6.4644177945        7.7648968631
  H         5.6088030485        5.6192314198        8.4680941321
  O        11.6090247281        2.7819186771        7.1446092647
  H        10.7666956183        2.2606431912        6.8882922567
  H        11.4760144306        2.9589030172        8.1185227912
  O         4.2669092352        7.2762808860       10.6989808360
  H         4.8528842378        7.3453223429        9.8961828737
  H         3.4596414824        6.8169286537       10.4407460368
  O         8.1709266662        5.3678474593        5.2414756636
  H         8.9796551485        4.9278223856        5.4761657513
  H         7.9555176817        5.0372565006        4.2931116343
  O         4.2921650373        4.2647873119        9.0516341205
  H         3.9014683682        3.4053329821        9.2260162857
  H         3.9710385642        4.7948535884        9.7807683003
  O         1.2085114205        0.6955494951        6.4296187348
  H         0.5561522256        0.3312853562        5.8231491289
  H         0.7183114604        1.2759504871        7.0112231726
  O         7.5603831117        4.9096167232        2.5118685102
  H         8.1865222901        4.3334851156        2.0780181269
  H         7.5299143805        5.7218524547        1.9493448132
  O        10.7538865528        5.1115225251        1.8058488221
  H        10.9911399058        4.2298414534        2.1288750338
  H        10.3761668715        5.5876579745        2.5694610819
  O         1.3484689624        7.2901071075        1.5007775245
  H         1.0153286119        6.9881054472        0.6414963850
  H         2.0074746365        7.9835815858        1.3081589500
  O         9.1047030596        6.7027823487        0.2052173546
  H         8.8604978230        7.5115687674        0.6618627751
  H         9.8188257571        6.3712836221        0.6584650035
  O        11.3711159305        7.8824856910        7.9683123056
  H        10.4144540748        7.7648947398        8.1302862386
  H        11.7286294626        7.9919352039        8.8212694673
  O         9.1975131622       11.2475553819        7.5958078676
  H         9.4536107523       10.5447161360        8.1837641350
  H         8.9787193598       11.9841427121        8.1592136035
  O         6.1336527451        4.9319146798       -0.2456351200
  H         5.9184083704        4.0072530166       -0.0292054577
  H         5.2536431266        5.3032218942       -0.4790530379
  O        10.5633380348       10.9959014462        4.6076968764
  H        11.1130513549       10.8843035006        3.8134843440
  H         9.6677553458       11.3426542503        4.3322009936
  O         9.2434937204        8.5754745554        6.1162756813
  H         8.3698640765        8.5990702000        5.6897578506
  H         9.7385361372        9.3001069099        5.7035225342
  O         7.6671447613       12.1567046131        1.4464497242
  H         7.2470136568       12.5408847774        2.2029239887
  H         8.4951037713       12.7114877661        1.3656647387
  O         4.9488518329       12.0550873285        3.4475228514
  H         4.0936425607       12.0380803639        2.9607465446
  H         4.7420706272       11.7913205278        4.3459013248
     192
 i =       27, E =     -1102.1352263196
  O         3.9849579585        5.5884516977        2.7020544941
  H         3.1176595342        5.3369654837        2.2872086144
  H         4.6542846505        5.5458858427        1.9844934230
  O        12.1187675073       10.5332690713        7.3837702157
  H        11.6946240597        9.6683444981        7.5209252191
  H        11.4357215617       11.0619849481        6.9294173853
  O         1.7696182120       11.2810531022        4.1529247197
  H         1.7346996862       10.3872683758        3.7395440867
  H         2.5046729315       11.2217730316        4.7837673679
  O         1.7106242066        2.3235315483        3.9875658812
  H         1.9780849560        1.4070420224        4.2801602932
  H         1.8270055432        2.8609079115        4.7933920340
  O         8.8934012340        1.5103071288        8.5187560545
  H         8.6052150041        1.6175519749        7.5824892449
  H         8.4834943464        2.3037975653        9.0351814633
  O         9.4337089574        7.5281138849        3.1152777843
  H        10.3033660678        7.9677684178        3.3339311877
  H         9.2477281928        6.9923316891        3.9271469599
  O         2.2811561014        2.1915003490        9.3672147981
  H         2.4336788112        1.2744980207        9.6529271544
  H         1.7785074426        2.5497128773       10.1254903022
  O         7.7641078894       11.5251341765        5.2257670770
  H         7.7892333671       12.5075823765        5.2205235622
  H         8.1437532744       11.3157914447        6.1423695733
  O         1.9654734326        9.2087452858        6.3672083739
  H         1.1331449404        9.7763628901        6.3121128116
  H         1.7431936033        8.5417870455        7.0581593782
  O         3.6938347653       11.8793134150        6.8253914702
  H         2.7052549175       11.9429018786        6.7895764908
  H         3.9613265303       10.9489279980        7.0153507302
  O        11.0069155851        6.1879793475        5.3617084690
  H        10.4163968067        6.8060214093        5.8388461389
  H        11.8875769270        6.2766027973        5.7827485373
  O         3.0714690989        0.2999226450        1.3758628306
  H         3.5652579622        0.3877436438        0.5159118881
  H         2.1764245898        0.0118467657        1.1022323174
  O         5.7537038228        7.8378082270        1.2832400357
  H         4.9455948029        7.4538650693        1.7164495040
  H         6.2813368657        8.2060375343        2.0285042580
  O         4.7121903534       10.3219169280        0.1715638368
  H         4.2286123427       10.4173220485        1.0126331861
  H         5.0646001144        9.4066988414        0.1878261281
  O        11.5728893143        0.7230726240        9.6065049229
  H        10.6817234741        0.8425082280        9.1627092146
  H        11.8327866985       -0.1910563402        9.3803942326
  O         6.8397020108        1.8600787174        3.2136493828
  H         6.3709308575        2.1216316439        2.3715462281
  H         6.0710632699        1.5586183060        3.7574133147
  O         6.8094196132        9.7122371107        3.3800359076
  H         6.1556600860       10.2974437316        2.9524773385
  H         7.3561072166       10.3407483956        3.8977104001
  O         5.6210815562        1.4790808781        6.0365127095
  H         5.1563437554        2.2960962226        6.3346994306
  H         5.3405320358        0.7334543115        6.6232880144
  O         7.9537913857        4.0657577188        9.8026415476
  H         8.4693898864        4.8820504696        9.6781849146
  H         7.1733684733        4.3726385525       10.4425483158
  O         0.8915462174       10.1709076108        0.4595383359
  H         1.5078490606       10.5263450210       -0.2032733861
  H         0.3057853977        9.6207166532       -0.0808756293
  O         7.1512808630        8.4315370180       10.9148209084
  H         7.7630218936        8.9231420583       11.5035384669
  H         6.7866427612        7.7245637432       11.5080172978
  O         2.7898077681        9.9415759240        9.5560202116
  H         3.4188111645        9.2203958858        9.3298619883
  H         2.7074617749       10.4894397931        8.7368753048
  O        11.1338701970        3.0869507266        4.0585886381
  H        11.2172644752        3.8058164454        4.7161541605
  H        11.9801308745        2.5791598650        4.1839228375
  O         8.2459006357        2.0460168685        5.8236582972
  H         7.2547821092        1.9568969241        5.8855162274
  H         8.4272402371        2.2931169263        4.8972446613
  O         5.7880985983        6.9187076554        4.5549886735
  H         6.7626519948        7.0429710316        4.5260857279
  H         5.6367151050        5.9741029214        4.8165173731
  O        10.0038241014        1.4572679892        1.6631766031
  H         9.9204045436        1.8729873045        2.5365763523
  H        10.7889339508        0.8650850356        1.7786446629
  O         9.7636213828       10.3354393540       10.2569819823
  H        10.1507847260       10.4997227775       11.1492533525
  H         8.8265508930       10.5910894123       10.4114473149
  O         1.4043139073        4.5333544015        2.1096031121
  H         1.3411695586        3.7080166147        2.6725220645
  H         0.8645626885        5.1849502660        2.5811877309
  O         2.2736987341        3.7064397642        6.5365052731
  H         2.7578559331        2.9530850664        6.9260144786
  H         1.5141435493        3.7795203768        7.1545972205
  O         7.1912349240       11.7188975149       10.9029746341
  H         7.6780734584       12.5673820187       10.8497628710
  H         6.8726990697       11.6500686833       11.8238474324
  O        12.1081167453        8.5239303873        3.4378360502
  H        12.2216850418        7.8613865336        4.1300673585
  H        12.6122149903        8.1389573371        2.6612758632
  O         1.0955094089        2.1964875974       -0.1286748715
  H         1.6482112876        2.0385610628        0.6569776556
  H         0.1744328239        2.1434996413        0.1958850886
  O         5.4354039625        9.2205168632        6.1543991259
  H         5.8289595849        9.5981723266        5.3378178945
  H         5.5518973245        8.2438485016        5.9872880171
  O        11.3374369953        4.6960410752        9.4093711901
  H        12.2044640529        5.1344918166        9.0609227606
  H        10.6320838907        5.1280619853        8.8369680579
  O         3.2413584445        4.4023406210       11.9496987728
  H         3.5663389083        3.7318785673       12.6410789918
  H         2.2934274181        4.4788067397       12.1879581393
  O         2.7620975000        6.9698436502        7.8983555944
  H         2.4795531275        6.2721550525        7.2911516508
  H         3.5304157098        7.3897218384        7.4576631017
  O         3.7806669613       12.4158084042       11.0067050692
  H         4.3742370235       12.6822235828       10.2765031960
  H         4.1023137172       11.5084777402       11.2499615584
  O         4.5217930078        2.8292285941        1.6903391400
  H         3.8022240638        2.2238233423        2.0639113826
  H         4.5541061765        3.5808309205        2.3474256828
  O         0.2327292690        9.1695793581       10.2433433220
  H         1.1605419072        9.4295119321        9.9623148851
  H        -0.3361536893        9.8275308299        9.7962586429
  O         3.6717130010        8.7019040586        3.8003865013
  H         3.8746610667        7.8061511626        3.7286236188
  H         3.5859903684        8.9473432626        4.7053143887
  O         5.0985224009        4.3757573329        5.9617474599
  H         5.9883935542        4.4980666538        6.3571981910
  H         4.4716031194        4.6559512829        6.6645713267
  O         6.2282225994       11.3622595331        8.2838589895
  H         6.2845614304       11.3895738033        9.2340214822
  H         6.7051387836       10.5615954911        7.9366943359
  O        -0.1525073514       12.2300029083        2.0781756789
  H         0.4768090891       12.2195379301        2.8435258118
  H         0.1046734295       11.4758595470        1.5148918339
  O         8.9483724009        9.8085692440        0.6872281176
  H         9.5067446693        9.4003311625        1.3919325500
  H         8.3811496380       10.4633225358        1.1728158585
  O         9.1531926217        6.8236731171        9.5341314007
  H         9.6214701982        6.7388232621       10.4079451571
  H         8.3833607299        7.3943636742        9.8125972031
  O         1.5902561575        6.4162966576        5.0065064984
  H         2.2824523372        5.7653436296        4.8872653105
  H         1.9907325631        7.3013073877        4.8978706441
  O         1.2765986475        6.1620313135       10.2899864256
  H         0.3778568684        6.1137615647       10.6806703435
  H         1.2692600712        6.9489142845        9.7137181353
  O         5.8880696719        6.5797309785        8.2635785737
  H         6.7810396856        6.4711836965        7.7816401741
  H         5.6170011000        5.6290465563        8.4823800790
  O        11.6109134355        2.7721113503        7.1575102531
  H        10.8125131440        2.2764323080        6.9200054115
  H        11.4713396853        2.9576692701        8.1242910714
  O         4.2731532116        7.3147107328       10.6785392620
  H         4.8380859478        7.3426668817        9.8842002165
  H         3.4621423219        6.8057733360       10.4326040449
  O         8.1667268721        5.3722685018        5.2103814521
  H         8.9883316054        4.9195984296        5.5104248134
  H         7.9689477726        5.0320113700        4.3124209598
  O         4.3148800163        4.2909708807        9.0433890744
  H         3.8700843001        3.4088106349        9.1892673633
  H         3.9548767574        4.8050907190        9.7954876429
  O         1.2033034650        0.6889562883        6.4091445340
  H         0.5321269067        0.3058468586        5.8251763431
  H         0.7115044025        1.2575434492        7.0292894276
  O         7.5484659708        4.9229076451        2.5129756699
  H         8.1722989704        4.3425326882        2.0550275134
  H         7.5204902546        5.7217404735        1.9441283650
  O        10.7651073934        5.1192989310        1.8104566353
  H        11.0074931852        4.2361888711        2.1399143562
  H        10.3827601663        5.5979795143        2.5726159134
  O         1.3359191449        7.2920653727        1.4941334517
  H         1.0166532516        6.9857876831        0.6366617004
  H         1.9864228095        8.0015859430        1.3135289096
  O         9.0801856056        6.7098315310        0.1400899650
  H         8.8701479514        7.5245841660        0.6640371939
  H         9.8162834232        6.2757526848        0.6817435117
  O        11.3826830980        7.9028646042        7.9510044785
  H        10.4258492392        7.7629080080        8.1430620833
  H        11.7875588679        7.9566370082        8.8403438729
  O         9.2135750371       11.2312394221        7.5796723272
  H         9.4576973919       10.5363295664        8.1914581428
  H         8.9406006385       12.0056502017        8.1335663001
  O         6.1216172869        4.9576612404       -0.2706533051
  H         5.9220520276        4.0265128553       -0.0282938856
  H         5.2472786459        5.3273143555       -0.5100990345
  O        10.5774507417       10.9997823522        4.6375082841
  H        11.1059561088       10.8754453199        3.8189178528
  H         9.7069805465       11.3448286622        4.3527830652
  O         9.2455260097        8.5749173962        6.1406753660
  H         8.3735205177        8.5976216117        5.6863275141
  H         9.7471047741        9.3063817643        5.6731793522
  O         7.7093072821       12.1436965601        1.4355625154
  H         7.2042675769       12.5745035034        2.1881923021
  H         8.5143500711       12.7214549732        1.3518816351
  O         4.9302703185       12.0536560161        3.4212141939
  H         4.0789226436       12.0408556779        2.9337360709
  H         4.7223132517       11.8184670184        4.3416356630
     192
 i =       28, E =     -1102.0113291304
  O         3.9767854068        5.6177632252        2.6715881573
  H         3.1323596016        5.3303706665        2.2744530959
  H         4.6530197030        5.5499434441        1.9824072169
  O        12.1156898408       10.5675675353        7.3747475178
  H        11.6585218384        9.6614842301        7.5319435661
  H        11.4324065839       11.0969263466        6.9084691380
  O         1.7871823192       11.2628019043        4.1142185004
  H         1.7322110309       10.3629105713        3.7350314174
  H         2.4939846631       11.2369248305        4.7664345690
  O         1.7022613977        2.3186004483        3.9705200682
  H         1.9967961493        1.4487940114        4.2757964240
  H         1.8318747237        2.8566457981        4.7982675355
  O         8.8727630912        1.5511433143        8.5579192793
  H         8.6257311916        1.6328961681        7.6177920247
  H         8.5393299878        2.3347356245        8.9593692387
  O         9.4157378930        7.5599984916        3.1298728915
  H        10.2794775870        7.9659461201        3.2914951072
  H         9.2247609648        6.9999026574        3.8944694186
  O         2.3043158282        2.2043844912        9.3614807429
  H         2.4204259282        1.2553797818        9.6524542944
  H         1.7696693728        2.5515267860       10.1220882871
  O         7.7579846253       11.5280055487        5.2502463489
  H         7.7945088826       12.5063712572        5.2357827925
  H         8.1631562885       11.2821409841        6.0845216022
  O         1.9670835795        9.2367604643        6.3813315811
  H         1.1314448652        9.7955429779        6.3135802083
  H         1.7491784875        8.5489597448        7.0295177246
  O         3.6914730845       11.8376069218        6.8544784002
  H         2.7389885077       11.9471404055        6.7698677613
  H         3.9870240070       10.9515675725        6.9802015300
  O        11.0259869818        6.1938141918        5.3687808646
  H        10.4304530040        6.7735303637        5.8475972408
  H        11.8918487117        6.2687062633        5.8052100045
  O         3.0327192828        0.3082790715        1.3641527287
  H         3.5500083700        0.3921405630        0.5468711936
  H         2.1509034520        0.0175718974        1.0774799708
  O         5.7274765634        7.8024485328        1.2779755341
  H         4.9986591907        7.5689838039        1.7208315265
  H         6.2618007799        8.1649344801        2.0175702822
  O         4.7275449561       10.3724388204        0.1564326851
  H         4.2580791493       10.4347687906        1.0216670062
  H         5.1079542737        9.4069341800        0.2051006306
  O        11.5366470731        0.7516576387        9.6193562540
  H        10.7624376722        0.8337383847        9.1347094363
  H        11.8131952637       -0.1821475524        9.3656129205
  O         6.8308132211        1.8967960826        3.2130872152
  H         6.3919176044        2.1123764369        2.3858292500
  H         6.1183302027        1.5608885176        3.7662294121
  O         6.8023833528        9.6886707102        3.3645395933
  H         6.1386685130       10.2886410114        2.9843543510
  H         7.3479629240       10.3140919720        3.8925453925
  O         5.5772001040        1.4682698881        6.0276531242
  H         5.1582123103        2.2869672244        6.3320250666
  H         5.3714051812        0.7493595357        6.5983569150
  O         7.9115592862        4.0506636073        9.8332974154
  H         8.4530954105        4.8794213344        9.7103297888
  H         7.2040031990        4.4169418838       10.4147525525
  O         0.9095991093       10.1480889864        0.4704794335
  H         1.5116708549       10.5220689572       -0.1906540679
  H         0.3045363960        9.6081223988       -0.0955503905
  O         7.1392766340        8.4049457166       10.9251721111
  H         7.7326144457        8.9018920411       11.5289865484
  H         6.8056577101        7.6991759044       11.5173326917
  O         2.7894072191        9.9533011385        9.5351582571
  H         3.4092992790        9.2296940601        9.3105770016
  H         2.6586703413       10.4747371905        8.7624146006
  O        11.1552025525        3.1137415495        4.0657283238
  H        11.2365997422        3.8231250337        4.7488688454
  H        11.9492760800        2.5822566693        4.1436364033
  O         8.2536914150        2.0392461122        5.8170384189
  H         7.2578363916        1.9934961948        5.8669103692
  H         8.4293122674        2.3278659495        4.8739722679
  O         5.7687951713        6.9427633050        4.5258450243
  H         6.7662430320        7.0255760733        4.5171048890
  H         5.6323061040        5.9440257326        4.8029064650
  O        10.0058658819        1.4743388014        1.6507901140
  H         9.8972264975        1.8644626271        2.5171073794
  H        10.7953064349        0.8921831678        1.7523395333
  O         9.7761145847       10.3052337575       10.2852729311
  H        10.1412151191       10.5224787275       11.1267459511
  H         8.8420343558       10.5861499581       10.4178327007
  O         1.3921566639        4.5236142383        2.1510139637
  H         1.3604052868        3.7058363157        2.5852132823
  H         0.8156500399        5.2036914717        2.6206221854
  O         2.2635320601        3.7078874276        6.5279925970
  H         2.7551345882        2.9642980906        6.9326967914
  H         1.4953693574        3.7753262291        7.1348989168
  O         7.1986110515       11.6981299507       10.8859711457
  H         7.6270846407       12.5603026493       10.8557067193
  H         6.8970827300       11.6447188292       11.8217895084
  O        12.1324272813        8.5635936137        3.4120362876
  H        12.2230664418        7.8801636465        4.1293682623
  H        12.5708604923        8.0862718571        2.7222582590
  O         1.0900984926        2.2160708807       -0.1414343252
  H         1.6456251321        2.0651932617        0.6480352479
  H         0.1952155874        2.1306291601        0.1988654410
  O         5.4763973429        9.1907545292        6.2033001290
  H         5.8110354285        9.5797593409        5.3621934261
  H         5.5045780185        8.2865863324        5.9708453586
  O        11.3975970801        4.8163562062        9.4163375814
  H        12.1130370757        5.0087820493        8.9972501762
  H        10.6920678443        5.1009258067        8.8765160851
  O         3.2494062797        4.4242146572       11.9931651007
  H         3.5753096238        3.7439480144       12.5925460130
  H         2.3021852447        4.4893526041       12.1703235827
  O         2.7471957202        6.9932365273        7.9172062613
  H         2.4700841939        6.2527289544        7.2938853232
  H         3.5322511918        7.3602705195        7.4491069708
  O         3.8212738088       12.4046157560       11.0335896634
  H         4.3911566283       12.6671225844       10.2948392125
  H         4.0705981028       11.5020294515       11.2469522152
  O         4.4334992953        2.8547538342        1.7082907240
  H         3.8904413132        2.2135482189        2.0870186671
  H         4.5525445385        3.5546372092        2.3667968960
  O         0.2407974667        9.1689740417       10.2381248589
  H         1.1649190838        9.4054547483        9.9746857450
  H        -0.3293297510        9.8361930819        9.7958152425
  O         3.4367306631        8.7537520417        3.7382716418
  H         4.0354982812        7.7949667801        3.7110290753
  H         3.6592038445        8.9462063364        4.7595867722
  O         5.1219950680        4.3534536621        5.9690576754
  H         5.9998363759        4.4877646726        6.3729805735
  H         4.4934934432        4.6574671363        6.6547808632
  O         6.2174239876       11.3706989884        8.1743986846
  H         6.3598057824       11.3604222824        9.2008862892
  H         6.6249000936       10.5922986950        8.0104048460
  O        -0.1577285462       12.2057635154        2.1278181096
  H         0.4966717322       12.2352919854        2.8325685606
  H         0.1297912049       11.4392667559        1.5155207455
  O         8.9653215536        9.7696128513        0.7035698947
  H         9.5443008277        9.4240534580        1.3691648370
  H         8.3711083253       10.4629316037        1.1813801899
  O         9.1173552654        6.8307967749        9.6197221891
  H         9.6287102761        6.7382907092       10.3615575416
  H         8.3615271960        7.4283821573        9.8283680465
  O         1.5516743199        6.4224952423        5.0001544740
  H         2.3205968947        5.7338853995        4.8355986971
  H         1.9970561032        7.3041855208        4.9153317905
  O         1.2600056356        6.1323487390       10.2976434737
  H         0.4118503320        6.1511720217       10.7035240465
  H         1.2724482154        6.9286957224        9.7302968326
  O         6.0187862701        6.5037013855        8.3056297638
  H         6.6477795676        6.4789929597        7.7298102130
  H         5.6135626501        5.7043400333        8.4534406279
  O        11.5631269971        2.7856533844        7.1421574826
  H        10.7946043887        2.2655121783        6.8996016062
  H        11.4876149411        2.9538619483        8.0802687799
  O         4.2748846156        7.2906631346       10.7016088271
  H         4.8476540603        7.2744862126        9.9232940959
  H         3.4803394074        6.8492629322       10.4200719250
  O         8.1577649747        5.3716637746        5.2104998899
  H         8.9563364828        4.9299489416        5.4411152878
  H         7.9411261592        5.0230709943        4.3311459963
  O         4.2972357648        4.2537007109        9.0499159883
  H         3.8820992037        3.3997366623        9.2299746376
  H         3.9517644222        4.7844649669        9.7969109917
  O         1.2250940360        0.7232991296        6.4063124003
  H         0.5340779254        0.2705623598        5.8492339018
  H         0.6965770026        1.2810463866        7.0619521854
  O         7.5374791656        4.9091847781        2.5415113406
  H         8.1751523028        4.3295855195        2.0139295373
  H         7.5438178030        5.7040652060        1.9638059828
  O        10.7580906632        5.1383857284        1.8213386847
  H        11.0045764047        4.2451791669        2.1492982796
  H        10.3871672905        5.6042967797        2.5962901925
  O         1.3510426133        7.3272722506        1.5296821658
  H         1.0452820431        6.9863645232        0.6296612359
  H         1.9979722140        7.9893378762        1.2779993699
  O         9.0913034382        6.7052522406        0.1464501375
  H         8.8568806393        7.5082933781        0.6558260533
  H         9.8297374437        6.3032741247        0.6843739045
  O        11.3493746468        7.8969346441        7.9463016043
  H        10.3916173289        7.7450853813        8.1490640519
  H        11.7628080866        7.9613601343        8.8539368429
  O         9.2203594486       11.2631252556        7.5523238194
  H         9.4406758124       10.5497169854        8.2356491567
  H         8.9407145866       11.9924077839        8.1564216468
  O         6.1382437966        4.9214158752       -0.2760416965
  H         5.9059080448        4.0066514749       -0.0231809711
  H         5.2856085744        5.3257008589       -0.5025752160
  O        10.5430060691       11.0062540577        4.6531446996
  H        11.0796877865       10.8552637878        3.8418431677
  H         9.7027687162       11.3244041932        4.3345714712
  O         9.2674500823        8.5851902610        6.0510654690
  H         8.3956468532        8.6024027316        5.7096876363
  H         9.7352642998        9.2829510564        5.7134274890
  O         7.6806210180       12.1517889933        1.4374438263
  H         7.2167866874       12.5381248793        2.2018980002
  H         8.4986865398       12.7072576803        1.3624144924
  O         4.9479520902       12.0263366640        3.4410471697
  H         4.1046221528       12.0801398014        2.9585261385
  H         4.7374450627       11.7981169936        4.3871271578
     192
 i =       29, E =     -1102.1487307411
  O         3.9821091292        5.5913029776        2.6778859002
  H         3.1203498012        5.3333691631        2.2784496798
  H         4.6558084476        5.5419011986        1.9835139388
  O        12.1230884714       10.5367621101        7.3736876078
  H        11.6785843024        9.6474930257        7.5384227667
  H        11.4326864898       11.0636706209        6.9211949858
  O         1.7638837638       11.2800154113        4.1380897921
  H         1.7243844912       10.3914461744        3.7545128272
  H         2.4913712915       11.2256956450        4.7815520482
  O         1.6864163272        2.3185989439        3.9774530698
  H         1.9678207412        1.4358668513        4.2729407359
  H         1.8488261088        2.8514783108        4.8193164809
  O         8.8912023683        1.5244742036        8.5422384250
  H         8.6219285765        1.6432284736        7.6016412505
  H         8.5090572458        2.3130530497        9.0374703169
  O         9.4440555462        7.5304409059        3.1235292854
  H        10.3078966757        7.9513266259        3.3158107977
  H         9.2412407396        6.9922645541        3.9134043120
  O         2.3004596052        2.2034172736        9.3660186081
  H         2.4324511281        1.2650858487        9.6427603994
  H         1.7841569446        2.5539176600       10.1272523034
  O         7.7725802536       11.5290367650        5.2395176032
  H         7.7998179469       12.5054099001        5.2210062960
  H         8.1600279592       11.3048905302        6.1135038306
  O         1.9609938796        9.2241653853        6.3677922212
  H         1.1386718249        9.7783162276        6.3122120425
  H         1.7725695710        8.5366249366        7.0612219004
  O         3.6984943818       11.8739550384        6.8069540145
  H         2.7076203623       11.9576248695        6.7838766523
  H         3.9543726887       10.9349781744        6.9949433800
  O        11.0148775659        6.1653912856        5.3581576157
  H        10.4342446805        6.8353536619        5.8421227633
  H        11.8882816656        6.2740935624        5.7806267316
  O         3.0651556811        0.3094696396        1.3686640155
  H         3.5562363204        0.3841172905        0.5087316908
  H         2.1696129060        0.0179125719        1.1037604357
  O         5.7787401280        7.8792387142        1.2866351082
  H         4.9521912392        7.4461229898        1.7314945342
  H         6.2864855127        8.2093240594        2.0314967714
  O         4.7175313002       10.3160342190        0.1715982902
  H         4.2355554338       10.4217479306        1.0088040726
  H         5.0701539136        9.4029147027        0.1839964444
  O        11.5875408783        0.7157840052        9.5960164148
  H        10.6702651980        0.8553372138        9.1739603093
  H        11.8114997398       -0.1871100291        9.3700894233
  O         6.8308768788        1.8682609532        3.2185115641
  H         6.3742256054        2.1289469590        2.3868612648
  H         6.0890015702        1.5525909202        3.7660555711
  O         6.8020891426        9.7018175133        3.3800699085
  H         6.1430479259       10.3010821077        2.9852840753
  H         7.3573877527       10.3476101994        3.8893623393
  O         5.6330554492        1.4883312594        6.0206789257
  H         5.1636272045        2.2981278701        6.3135211651
  H         5.3252994410        0.7417369288        6.6306181854
  O         7.9226156883        4.0440885336        9.8147850306
  H         8.4427615986        4.8911207706        9.7033507362
  H         7.2035096635        4.3746267972       10.3977202919
  O         0.9017062832       10.1849034739        0.4650759528
  H         1.5337105114       10.5320617639       -0.2046145417
  H         0.3181379168        9.6197942924       -0.1134846781
  O         7.1449841342        8.4214442412       10.9223700477
  H         7.7602411837        8.9144536192       11.5035021561
  H         6.7932099686        7.7242641164       11.5036516425
  O         2.7786524445        9.9335635049        9.5605983025
  H         3.4118118507        9.2141016635        9.3484007236
  H         2.7063121926       10.4755068652        8.7347654750
  O        11.1418552574        3.0879775916        4.0665998656
  H        11.2135629621        3.8088370806        4.7288303463
  H        11.9725445096        2.5844709416        4.1634659263
  O         8.2430507800        2.0332332157        5.8250327485
  H         7.2512226261        1.9518199315        5.8861362336
  H         8.4209576471        2.2933135307        4.8988965590
  O         5.7867672949        6.9087206350        4.5561238521
  H         6.7522517233        7.0241113599        4.5302821592
  H         5.6323736904        5.9726937508        4.8178717421
  O        10.0078526657        1.4264874151        1.6644722104
  H         9.9203712554        1.9019121508        2.5465439875
  H        10.8084962564        0.8598711278        1.7851223048
  O         9.7558746390       10.3272652257       10.2652313774
  H        10.1382235582       10.4931058114       11.1492061780
  H         8.8219794493       10.6014992334       10.4098952474
  O         1.4134212843        4.5245414586        2.1233393140
  H         1.3771658982        3.7066763331        2.6548560932
  H         0.8598178702        5.1864787128        2.5841960815
  O         2.2674385481        3.7048311105        6.5282227698
  H         2.7540446028        2.9584394677        6.9303070575
  H         1.4887989502        3.7702330235        7.1248316851
  O         7.2002135823       11.7224672298       10.9032958541
  H         7.6719876327       12.5743907635       10.8602773186
  H         6.8750936831       11.6577036885       11.8303918937
  O        12.1269213657        8.5469965619        3.4215440125
  H        12.2138075707        7.8572335802        4.1277766821
  H        12.5984739909        8.1243565955        2.6752514424
  O         1.0871283724        2.1930663265       -0.1440130923
  H         1.6359163626        2.0432317855        0.6481117914
  H         0.1690459987        2.1373250303        0.1806795482
  O         5.4635721882        9.2139696151        6.1651921615
  H         5.8128864312        9.6020983739        5.3334032191
  H         5.5347547565        8.2722615358        5.9699511841
  O        11.3491351866        4.7538591606        9.3987225119
  H        12.1845009893        5.0897555231        9.0359817453
  H        10.6439831009        5.1234654198        8.8539282709
  O         3.2445626924        4.4010531328       11.9798682893
  H         3.5732948234        3.7379065859       12.6140524522
  H         2.2972271202        4.4805241292       12.1756834420
  O         2.7616562722        6.9897924651        7.9101738844
  H         2.4894853449        6.2646352487        7.2987096584
  H         3.5509063943        7.3750903419        7.4668862349
  O         3.7958812890       12.4144660083       11.0178920248
  H         4.3914537667       12.6879336930       10.2934563273
  H         4.1013851455       11.5057953393       11.2488220306
  O         4.4642505066        2.8552397609        1.6955929143
  H         3.8508378317        2.2110737991        2.0473187900
  H         4.5444107151        3.5710873387        2.3545129785
  O         0.2398966261        9.1636615549       10.2394786575
  H         1.1639479742        9.4244624698        9.9603812421
  H        -0.3483202743        9.8226215808        9.8018912873
  O         3.5313474684        8.7328882919        3.7569212612
  H         3.9564303968        7.7866022020        3.7106282892
  H         3.6102926928        8.9407544006        4.7346907540
  O         5.1055799321        4.3591367196        5.9743159704
  H         6.0037216896        4.5014915542        6.3557572725
  H         4.4845240616        4.6556616682        6.6708271037
  O         6.1944624660       11.3726801695        8.2399846640
  H         6.3493312436       11.3699915298        9.2572929540
  H         6.6591388375       10.5754387682        7.9513929850
  O        -0.1490055927       12.2224763091        2.1027907189
  H         0.4864381594       12.2198181331        2.8452753982
  H         0.1147303317       11.4645513649        1.4930692918
  O         8.9554261089        9.7860483149        0.6934493821
  H         9.5073485487        9.4052358357        1.4019344753
  H         8.3793954697       10.4778415487        1.1651212417
  O         9.1410551545        6.8229676237        9.5214464354
  H         9.6004036682        6.7421170950       10.4342910474
  H         8.3647242502        7.3927599681        9.8169025176
  O         1.6002692427        6.4191331027        5.0103822196
  H         2.2830608222        5.7613870774        4.8675133801
  H         1.9841677002        7.2922742599        4.9056609925
  O         1.2752062249        6.1596774890       10.2997651938
  H         0.3736834496        6.1282943787       10.6802580784
  H         1.2739795236        6.9483455392        9.7242304412
  O         5.9202311680        6.5352967252        8.2913374439
  H         6.7512192633        6.4999794508        7.7727480771
  H         5.6044542964        5.6380904864        8.4819482934
  O        11.6151417503        2.7751434085        7.1634269543
  H        10.7965046212        2.2809320839        6.9185582281
  H        11.4915332229        2.9576501391        8.1169662341
  O         4.2729654675        7.3046481504       10.6813405251
  H         4.8434475858        7.3168019692        9.8903058046
  H         3.4728351964        6.8250849109       10.4203926025
  O         8.1450586054        5.3716234542        5.2165695936
  H         8.9794453282        4.9249919016        5.5307928583
  H         7.9701921610        5.0270910783        4.2746076349
  O         4.3088087070        4.2872957597        9.0452471144
  H         3.8573148020        3.4089250868        9.1867818787
  H         3.9456648185        4.7988615256        9.8025773703
  O         1.2049618474        0.6962425695        6.4041105708
  H         0.5187375814        0.2672384357        5.8457013618
  H         0.6954383583        1.2544281978        7.0460341784
  O         7.5403547743        4.9223774288        2.5106597161
  H         8.1694013203        4.3425543164        2.0344483532
  H         7.5171246429        5.7154824408        1.9416812916
  O        10.7754242936        5.1380977077        1.8285681465
  H        11.0122366845        4.2491278237        2.1559007703
  H        10.3904944408        5.6094879686        2.5936981503
  O         1.3368473372        7.3140529545        1.5029874446
  H         1.0314505130        6.9829805482        0.6296308741
  H         1.9792541378        8.0145791371        1.2978780796
  O         9.0845113378        6.6946846950        0.1513876397
  H         8.8549061194        7.4994114929        0.6270831611
  H         9.8163981020        6.2554567242        0.6664460961
  O        11.3827863857        7.8949484103        7.9566523797
  H        10.4273243370        7.7513220792        8.1636172492
  H        11.7997058748        7.9521578309        8.8492764917
  O         9.2179040434       11.2499611624        7.5474790374
  H         9.4496005648       10.5514795090        8.2299302847
  H         8.9258108214       11.9950194398        8.1257060684
  O         6.1308595017        4.9549750012       -0.2942879988
  H         5.9066110187        4.0419016674       -0.0292702535
  H         5.2598757533        5.3349424169       -0.5315714317
  O        10.5809011584       10.9824742775        4.6509671063
  H        11.1107824123       10.8522788811        3.8426778837
  H         9.6981679228       11.3579332387        4.3807206353
  O         9.2498994525        8.5578420658        6.1558444903
  H         8.3773279038        8.5994122422        5.6935699361
  H         9.7693678863        9.3195437820        5.6259658276
  O         7.6973120286       12.1579071025        1.4244218441
  H         7.2172107259       12.5623876501        2.1745006380
  H         8.5147196926       12.7246712051        1.3668782168
  O         4.9262672924       12.0397965227        3.4145585115
  H         4.0788260669       12.0653805349        2.9293339575
  H         4.7159481449       11.8269858406        4.3577099761
     192
 i =       30, E =     -1102.0003422751
  O         4.0009148092        5.5886485132        2.7098121129
  H         3.1068031498        5.3449881026        2.2567807144
  H         4.6598936173        5.5498967655        1.9524271102
  O        12.0828193294       10.5320675915        7.4103336554
  H        11.7110769085        9.6817499383        7.4846411815
  H        11.4136232311       11.0523172377        6.9374066254
  O         1.7312985318       11.3004238591        4.1298000431
  H         1.7425455485       10.3714999208        3.7448750465
  H         2.5031342445       11.2146743431        4.7715788150
  O         1.7179785670        2.3400606731        3.9917381415
  H         1.9699596052        1.4175123093        4.2664064063
  H         1.8169792875        2.8621087954        4.8005064091
  O         8.8892963195        1.5349502698        8.5606930381
  H         8.6321605691        1.6635274338        7.6085505140
  H         8.5252775725        2.3197854284        9.0206767834
  O         9.4186823501        7.5288866511        3.0884062424
  H        10.3063021210        7.9641805446        3.3302901366
  H         9.2405652157        6.9997259769        3.9098259271
  O         2.2787853588        2.1733792082        9.3596547650
  H         2.4459851887        1.2885440218        9.6600809579
  H         1.7970911968        2.5582710265       10.1064403596
  O         7.7857534980       11.5216567278        5.2003892954
  H         7.7942520454       12.5138909685        5.2332617956
  H         8.1520387047       11.2905118220        6.1343092671
  O         1.9688122444        9.2374547689        6.3930961674
  H         1.1490883654        9.7720342136        6.3224027497
  H         1.7640194741        8.5531232237        7.0342928262
  O         3.7030353637       11.8649742334        6.8124028605
  H         2.7177560122       11.9514653561        6.7812204631
  H         3.9582015284       10.9377386176        6.9723767288
  O        11.0183037288        6.2053728165        5.3643267843
  H        10.4342947643        6.7945180850        5.8410355613
  H        11.8970825855        6.2668091955        5.7861165054
  O         3.0532270455        0.3146132006        1.3765909387
  H         3.5396652180        0.3818750554        0.4994374369
  H         2.1628638869        0.0228967775        1.1052928406
  O         5.7313117018        7.7445271273        1.2767513045
  H         4.9956547266        7.5236172445        1.7044526344
  H         6.2975960979        8.2831193254        2.0542311860
  O         4.7357069586       10.3281598670        0.1736934307
  H         4.2550945862       10.4285638268        1.0175964800
  H         5.0733998442        9.4167765760        0.1771837615
  O        11.5301575267        0.7444209318        9.6274115962
  H        10.7272332985        0.8500954242        9.1633995076
  H        11.8194864097       -0.1984951998        9.3318304278
  O         6.8573989956        1.8704420477        3.2184730081
  H         6.3703821666        2.1412747468        2.3877167206
  H         6.0846966556        1.5601482070        3.7717654932
  O         6.8008393653        9.7108442681        3.3809548589
  H         6.1222929703       10.2969640098        2.9888775631
  H         7.3567529933       10.3198123106        3.9055847547
  O         5.5984580733        1.4745132936        6.0289565351
  H         5.1586749016        2.3052023263        6.3090552042
  H         5.3515335462        0.7447684679        6.6081045334
  O         7.9356321995        4.0825103509        9.8138733922
  H         8.4563531502        4.8516753775        9.6786952530
  H         7.1603057845        4.3862496329       10.4380023346
  O         0.9205993124       10.1480842364        0.4346115148
  H         1.5301489686       10.5297857221       -0.1962149369
  H         0.3208047845        9.6510002177       -0.0937975147
  O         7.1549809436        8.4097887639       10.9112784122
  H         7.7495663923        8.9069103178       11.5113151403
  H         6.7769042602        7.7081235827       11.5266982030
  O         2.7874595957        9.9447802310        9.5506789772
  H         3.4008054437        9.2188402645        9.3425554097
  H         2.6912455071       10.4621996899        8.7422428816
  O        11.1327032814        3.1037210350        4.0610178689
  H        11.2176818068        3.8022460481        4.7347177755
  H        11.9834152969        2.5965902232        4.1690497243
  O         8.2518621673        2.0569238724        5.8152139290
  H         7.2629770072        1.9625424897        5.8856176122
  H         8.4194808515        2.2851205068        4.8990542683
  O         5.7694259667        6.9151872424        4.5430913149
  H         6.7540389678        7.0105572238        4.5186208354
  H         5.6190898003        5.9749801757        4.8180520276
  O        10.0192152251        1.4725055489        1.6698530921
  H         9.9177876097        1.8526882829        2.5231277541
  H        10.8018577355        0.8775388264        1.7866398316
  O         9.7542127571       10.3346704108       10.2565133860
  H        10.1458601960       10.4827835401       11.1634888462
  H         8.8199781698       10.5977936607       10.4086353270
  O         1.4131326953        4.5532593471        2.0865898742
  H         1.3552832128        3.7246870352        2.7024546690
  H         0.8617333231        5.1477777658        2.5697076893
  O         2.2569202097        3.6954352136        6.5184187335
  H         2.7518693666        2.9655930579        6.9358750140
  H         1.4806375247        3.7668697009        7.1086623796
  O         7.2015053102       11.7245361224       10.9021231580
  H         7.6564899417       12.5780335954       10.8523590364
  H         6.8804094968       11.6431390318       11.8340726905
  O        12.0853906441        8.4971232352        3.4561119573
  H        12.2264123531        7.8971488596        4.1588947416
  H        12.6184145803        8.1416342883        2.6310499821
  O         1.0863667725        2.1921991670       -0.1427821431
  H         1.6444480672        2.0560282258        0.6399762284
  H         0.1594102822        2.1362694629        0.1739030663
  O         5.4306742050        9.2376178243        6.1535181253
  H         5.8186421354        9.6214486243        5.3403446419
  H         5.5543055744        8.2240211529        5.9908490247
  O        11.3325146927        4.6655808811        9.3941355095
  H        12.2458078208        5.1436417650        9.0424464454
  H        10.6119367876        5.1504819622        8.8446390631
  O         3.2506478350        4.4225895917       11.9408592311
  H         3.5706475627        3.7409211941       12.6357090709
  H         2.2971629865        4.4867607414       12.1811868403
  O         2.7861715677        6.9560356853        7.8938567861
  H         2.4598660115        6.2905362193        7.3267082082
  H         3.5534969555        7.3719871607        7.4664230105
  O         3.7821101234       12.4187309437       11.0188769880
  H         4.4034970694       12.6797837895       10.3055759229
  H         4.1185863882       11.4910361095       11.2542620618
  O         4.5310335767        2.8548789543        1.7030628628
  H         3.7989674192        2.1852744737        2.0288962742
  H         4.5305115393        3.5873334496        2.3935795435
  O         0.2251497105        9.1561170731       10.2439909671
  H         1.1528433778        9.4271702888        9.9622288249
  H        -0.3256261221        9.8198425732        9.8072324664
  O         3.7813474684        8.7202867640        3.7910815349
  H         3.7904591900        7.7990991747        3.7258562429
  H         3.5376991692        8.9493585588        4.6794393413
  O         5.1283041107        4.3644271741        5.9714499372
  H         6.0038017015        4.4879980649        6.3639646724
  H         4.4938646202        4.6472038261        6.6688034659
  O         6.2488004038       11.3739995296        8.3273879255
  H         6.2653671368       11.4317230256        9.2146290981
  H         6.6941082563       10.5215145919        7.8765985194
  O        -0.1277105892       12.2145122689        2.0533329941
  H         0.4832509921       12.2010677489        2.8367620833
  H         0.1198840714       11.4656886754        1.5660071083
  O         8.9583145313        9.8419211767        0.6847664589
  H         9.4934822129        9.4102584568        1.4097712056
  H         8.4083185310       10.4078256140        1.1639583199
  O         9.0892601424        6.8186705665        9.5927976927
  H         9.5866101812        6.7490454898       10.3879122171
  H         8.4017331874        7.4056241858        9.8165879570
  O         1.5450379186        6.4023651594        5.0245945426
  H         2.3009296056        5.7351056859        4.8547947830
  H         2.0262488481        7.3290253337        4.8767922665
  O         1.2863291040        6.1659665025       10.3138084507
  H         0.3571173857        6.1215537541       10.6883920391
  H         1.2867887667        6.9417848963        9.7243126391
  O         5.8566917388        6.5956500131        8.2716966363
  H         6.7844931053        6.4939744034        7.7829808089
  H         5.6273530149        5.5887619047        8.4803900280
  O        11.5937560504        2.7743306522        7.1475004116
  H        10.8130300507        2.2720824821        6.9044321535
  H        11.4708444946        2.9645084276        8.1123909164
  O         4.2850615448        7.3232322077       10.6798359728
  H         4.8681287534        7.3109168635        9.8952744662
  H         3.4552403302        6.7997157111       10.4376702623
  O         8.1501460198        5.3589012552        5.2063315896
  H         8.9642339931        4.9323970427        5.4738424940
  H         7.9450389116        5.0274956542        4.3163717574
  O         4.2852974272        4.2687492105        9.0512567165
  H         3.8666161317        3.4104094081        9.2065549179
  H         3.9493838361        4.7865882303        9.7994432477
  O         1.1807185401        0.6901320620        6.4485786663
  H         0.5561748062        0.2639496818        5.8708642007
  H         0.6834013951        1.2643905160        7.0070020893
  O         7.5450293140        4.9045901266        2.4853492641
  H         8.1836720271        4.3419005063        2.0688704490
  H         7.4982548485        5.7131895325        1.9262412783
  O        10.7853981248        5.1478019805        1.8397354929
  H        11.0050677780        4.2557662971        2.1570085354
  H        10.3956843728        5.6181713699        2.6029729289
  O         1.3608967513        7.2899502831        1.4715166941
  H         1.0190402389        6.9994907437        0.6556950818
  H         1.9930707115        8.0301244499        1.2983236223
  O         9.0933802263        6.6567569126        0.1475927656
  H         8.8835772328        7.4880191201        0.6390227877
  H         9.7920182276        6.2886393954        0.6561939318
  O        11.3790309983        7.8806378961        7.9614252550
  H        10.4227593537        7.7413667090        8.1750476376
  H        11.7678751213        7.9654782238        8.8427376054
  O         9.1797473245       11.2531212952        7.6216033321
  H         9.4412509496       10.5507546554        8.1472438524
  H         8.9567483130       12.0076508619        8.1545804555
  O         6.1389244374        4.9445591750       -0.2932804550
  H         5.9066154335        4.0349724142       -0.0236687622
  H         5.2741828484        5.3369106393       -0.5343776996
  O        10.5664333502       10.9861623549        4.6623925256
  H        11.0981797727       10.8383496252        3.8533123786
  H         9.6990356529       11.3434807305        4.3771694464
  O         9.2835580742        8.6154211602        6.0077682143
  H         8.4050871943        8.5919609914        5.7069053123
  H         9.7357787050        9.2689613106        5.7377905165
  O         7.6974164478       12.1504347980        1.4201745904
  H         7.2020059838       12.5498210973        2.1772994130
  H         8.5135285744       12.7191385863        1.3664208690
  O         4.9388809767       12.0528880595        3.4533891632
  H         4.0899092015       12.0708085800        2.9535386600
  H         4.7124098526       11.8064482556        4.3365413492
