3
Properties=species:S:1:pos:R:3:forces:R:3 SO2=T energy=-16.815808388438125 free_energy=-16.815808388438125 stress="7.347343225448118e-45 5.701705439560241e-27 -5.549121227854721e-27 5.701705439560241e-27 1.6220898100663534e-08 0.0 -5.549121227854721e-27 0.0 5.763007821899682e-09" pbc="F F F"
S       -0.00000000      -0.00000000       0.37031340       0.00000000       0.00000000      -0.00237428
O        0.00000000       1.24406135      -0.37029070      -0.00000000      -0.00198917       0.00118714
O        0.00000000      -1.24406135      -0.37029070      -0.00000000       0.00198917       0.00118714
