ITEM: TIMESTEP
0
ITEM: NUMBER OF ATOMS
6
ITEM: BOX BOUNDS pp pp pp
0.0000000000000000e+00 1.2400000000000000e+01
0.0000000000000000e+00 1.2400000000000000e+01
0.0000000000000000e+00 1.2400000000000000e+01
ITEM: ATOMS id type x y z
1 1 3.848 6.07 2.321
3 2 3.108 6.076 1.646
2 1 6.848 6.07 2.321
4 2 6.508 6.076 1.646
5 2 4.568 6.459 1.808
6 2 6.468 6.459 1.808
ITEM: TIMESTEP
10
ITEM: NUMBER OF ATOMS
6
ITEM: BOX BOUNDS pp pp pp
0.0000000000000000e+00 1.2400000000000000e+01
0.0000000000000000e+00 1.2400000000000000e+01
0.0000000000000000e+00 1.2400000000000000e+01
ITEM: ATOMS id type x y z
1 1 3.848 6.07 2.321
3 2 3.108 6.076 1.646
2 1 6.848 6.07 2.321
4 2 6.508 6.076 1.646
5 2 4.568 6.459 1.808
6 2 6.468 6.459 1.808
ITEM: TIMESTEP
20
ITEM: NUMBER OF ATOMS
6
ITEM: BOX BOUNDS pp pp pp
0.0000000000000000e+00 1.2400000000000000e+01
0.0000000000000000e+00 1.2400000000000000e+01
0.0000000000000000e+00 1.2400000000000000e+01
ITEM: ATOMS id type x y z
1 1 3.848 6.07 2.321
3 2 3.108 6.076 1.646
2 1 6.848 6.07 2.321
4 2 6.508 6.076 1.646
5 2 4.568 6.459 1.808
6 2 6.468 6.459 1.808
ITEM: TIMESTEP
30
ITEM: NUMBER OF ATOMS
6
ITEM: BOX BOUNDS pp pp pp
0.0000000000000000e+00 1.2400000000000000e+01
0.0000000000000000e+00 1.2400000000000000e+01
0.0000000000000000e+00 1.2400000000000000e+01
ITEM: ATOMS id type x y z
1 1 3.848 6.07 2.321
3 2 3.108 6.076 1.646
2 1 6.848 6.07 2.321
4 2 6.508 6.076 1.646
5 2 4.568 6.459 1.808
6 2 6.468 6.459 1.808
