LAMMPS (2 Aug 2023 - Update 3)
  using 1 OpenMP thread(s) per MPI task
DeePMD-kit: Cannot find libcudart.so.12
implib-gen: libcudart.so.12: failed to load library 'libcudart.so.12' via callback 'DP_cudart_dlopen'
implib-gen: libcudart.so.12: failed to resolve symbol '__cudaRegisterFatBinary', library failed to load
implib-gen: libcudart.so.12: failed to load library 'libcudart.so.12' via callback 'DP_cudart_dlopen'
implib-gen: libcudart.so.12: failed to resolve symbol '__cudaRegisterFunction', library failed to load
implib-gen: libcudart.so.12: failed to load library 'libcudart.so.12' via callback 'DP_cudart_dlopen'
implib-gen: libcudart.so.12: failed to resolve symbol '__cudaRegisterVar', library failed to load
implib-gen: libcudart.so.12: failed to load library 'libcudart.so.12' via callback 'DP_cudart_dlopen'
implib-gen: libcudart.so.12: failed to resolve symbol '__cudaRegisterFatBinaryEnd', library failed to load
2026-08-10 10:44:28.279278: E external/local_xla/xla/stream_executor/cuda/cuda_fft.cc:479] Unable to register cuFFT factory: Attempting to register factory for plugin cuFFT when one has already been registered
2026-08-10 10:44:28.341654: E external/local_xla/xla/stream_executor/cuda/cuda_dnn.cc:10575] Unable to register cuDNN factory: Attempting to register factory for plugin cuDNN when one has already been registered
2026-08-10 10:44:28.341981: E external/local_xla/xla/stream_executor/cuda/cuda_blas.cc:1442] Unable to register cuBLAS factory: Attempting to register factory for plugin cuBLAS when one has already been registered
Loaded 1 plugins from /opt/ai2kit/lib/python3.11/site-packages/deepmd/lib

The 'box' command has been removed and will be ignored

Created orthogonal box = (0 0 0) to (12.4 12.4 12.4)
  1 by 1 by 1 MPI processor grid
Summary of lammps deepmd module ...
  >>> Info of deepmd-kit:
  installed to:       /usr/local
  source:             v2.2.11
  source branch:      HEAD
  source commit:      84ca63ca
  source commit at:   2024-07-03 23:01:07 +0800
  support model ver.: 1.1 
  build variant:      cuda
  build with tf inc:  /tmp/build-env-gophdg11/lib/python3.11/site-packages/tensorflow/include/;/tmp/build-env-gophdg11/lib/python3.11/site-packages/tensorflow/include/
  build with tf lib:  /tmp/build-env-gophdg11/lib/python3.11/site-packages/tensorflow/libtensorflow_cc.so.2
  set tf intra_op_parallelism_threads: 1
  set tf inter_op_parallelism_threads: 1
  >>> Info of lammps module:
  use deepmd-kit at:  /usr/local
  source:             v2.2.11
  source branch:      HEAD
  source commit:      84ca63ca
  source commit at:   2024-07-03 23:01:07 +0800
  build float prec:   double
  build with tf inc:  /tmp/build-env-gophdg11/lib/python3.11/site-packages/tensorflow/include/;/tmp/build-env-gophdg11/lib/python3.11/site-packages/tensorflow/include/
  build with tf lib:  /tmp/build-env-gophdg11/lib/python3.11/site-packages/tensorflow/libtensorflow_cc.so.2
implib-gen: libcudart.so.12: failed to load library 'libcudart.so.12' via callback 'DP_cudart_dlopen'
implib-gen: libcudart.so.12: failed to resolve symbol 'cudaGetDeviceCount', library failed to load
INVALID_ARGUMENT: Tensor spin_attr/ntypes_spin:0, specified in either feed_devices or fetch_devices was not found in the Graph
  >>> Info of model(s):
  using   1 model(s): frozen.pb 
  rcut in model:      5
  ntypes in model:    2
Created 1 atoms
  using lattice units in orthogonal box = (0 0 0) to (12.4 12.4 12.4)
  create_atoms CPU = 0.001 seconds
Created 1 atoms
  using lattice units in orthogonal box = (0 0 0) to (12.4 12.4 12.4)
  create_atoms CPU = 0.000 seconds
Created 1 atoms
  using lattice units in orthogonal box = (0 0 0) to (12.4 12.4 12.4)
  create_atoms CPU = 0.000 seconds
Created 1 atoms
  using lattice units in orthogonal box = (0 0 0) to (12.4 12.4 12.4)
  create_atoms CPU = 0.000 seconds
Created 1 atoms
  using lattice units in orthogonal box = (0 0 0) to (12.4 12.4 12.4)
  create_atoms CPU = 0.000 seconds
Created 1 atoms
  using lattice units in orthogonal box = (0 0 0) to (12.4 12.4 12.4)
  create_atoms CPU = 0.000 seconds

CITE-CITE-CITE-CITE-CITE-CITE-CITE-CITE-CITE-CITE-CITE-CITE-CITE

Your simulation uses code contributions which should be cited:
- USER-DEEPMD package:
The log file lists these citations in BibTeX format.

CITE-CITE-CITE-CITE-CITE-CITE-CITE-CITE-CITE-CITE-CITE-CITE-CITE

WARNING: No fixes with time integration, atoms won't move (src/src/verlet.cpp:60)
Generated 0 of 1 mixed pair_coeff terms from geometric mixing rule
Neighbor list info ...
  update: every = 1 steps, delay = 0 steps, check = yes
  max neighbors/atom: 2000, page size: 100000
  master list distance cutoff = 5.3
  ghost atom cutoff = 5.3
  binsize = 2.65, bins = 5 5 5
  1 neighbor lists, perpetual/occasional/extra = 1 0 0
  (1) pair deepmd, perpetual
      attributes: full, newton on
      pair build: full/bin/atomonly
      stencil: full/bin/3d
      bin: standard
Setting up Verlet run ...
  Unit style    : metal
  Current step  : 0
  Time step     : 0.0005
Per MPI rank memory allocation (min/avg/max) = 3.06 | 3.06 | 3.06 Mbytes
   Step          Temp          PotEng         KinEng         TotEng         Press     
         0   300           -152.21127      0.19389022    -152.01738      183.30104    
        10   300           -152.21127      0.19389022    -152.01738      183.30104    
        20   300           -152.21127      0.19389022    -152.01738      183.30104    
        30   300           -152.21127      0.19389022    -152.01738      183.30104    
Loop time of 0.0163998 on 1 procs for 30 steps with 6 atoms

Performance: 79.026 ns/day, 0.304 hours/ns, 1829.296 timesteps/s, 10.976 katom-step/s
83.0% CPU use with 1 MPI tasks x 1 OpenMP threads

MPI task timing breakdown:
Section |  min time  |  avg time  |  max time  |%varavg| %total
---------------------------------------------------------------
Pair    | 0.014007   | 0.014007   | 0.014007   |   0.0 | 85.41
Neigh   | 0          | 0          | 0          |   0.0 |  0.00
Comm    | 0.00016316 | 0.00016316 | 0.00016316 |   0.0 |  0.99
Output  | 0.0019143  | 0.0019143  | 0.0019143  |   0.0 | 11.67
Modify  | 3.646e-05  | 3.646e-05  | 3.646e-05  |   0.0 |  0.22
Other   |            | 0.0002791  |            |       |  1.70

Nlocal:              6 ave           6 max           6 min
Histogram: 1 0 0 0 0 0 0 0 0 0
Nghost:             12 ave          12 max          12 min
Histogram: 1 0 0 0 0 0 0 0 0 0
Neighs:              0 ave           0 max           0 min
Histogram: 1 0 0 0 0 0 0 0 0 0
FullNghs:           30 ave          30 max          30 min
Histogram: 1 0 0 0 0 0 0 0 0 0

Total # of neighbors = 30
Ave neighs/atom = 5
Neighbor list builds = 0
Dangerous builds = 0
Total wall time: 0:00:00
implib-gen: libcudart.so.12: failed to load library 'libcudart.so.12' via callback 'DP_cudart_dlopen'
implib-gen: libcudart.so.12: failed to resolve symbol '__cudaUnregisterFatBinary', library failed to load
