         192
  Built with Packmol                                             
  O            3.823393        6.087924        2.392599
  H            3.236273        5.332197        2.353445
  H            4.649451        5.767473        2.028862
  O           11.586256       11.008694        7.542330
  H           11.610401       10.118241        7.190368
  H           11.425300       11.563110        6.778078
  O            2.249338       10.936186        3.530347
  H            1.829284       10.092271        3.699841
  H            2.665934       11.166605        4.361443
  O            1.986464        2.308059        3.773415
  H            2.464184        1.686726        4.323955
  H            1.600260        2.928000        4.393000
  O            8.916587        1.913833        8.321647
  H            8.514043        1.431504        7.598678
  H            8.745984        2.834215        8.118772
  O            8.853577        8.097801        3.278205
  H            9.726216        8.337420        2.964435
  H            8.938087        7.180774        3.541425
  O            2.017071        1.937708        9.314056
  H            2.390625        1.290046        9.912686
  H            1.588848        2.573957        9.887797
  O            7.335640       11.575451        5.481000
  H            7.739930       12.442941        5.443898
  H            8.027779       11.003659        5.814709
  O            1.774159        9.559261        6.727024
  H            1.329273       10.069862        6.049729
  H            1.328054        8.711744        6.718614
  O            3.792440       11.633687        7.325135
  H            3.025541       11.614312        6.751675
  H            4.365830       10.948468        6.980077
  O           11.158805        6.145502        5.535132
  H           10.365540        6.182790        6.070581
  H           11.875851        6.227114        6.164855
  O            2.532604        0.254767        1.454847
  H            3.335780        0.524288        1.008045
  H            1.916704        0.066717        0.745855
  O            5.488764        7.793264        0.999110
  H            4.763511        8.131041        1.525685
  H            6.169806        7.581963        1.638562
  O            5.426597       10.799313        0.620221
  H            4.628552       10.736930        1.146148
  H            5.406146       10.021094        0.062257
  O           11.816333        0.878923        9.395065
  H           11.394315        0.801648        8.538738
  H           11.775250       -0.004843        9.761993
  O            6.848520        2.384495        3.035720
  H            6.636128        1.947060        2.210550
  H            6.563165        1.769449        3.712223
  O            6.817685        9.396945        3.129252
  H            6.136641       10.027028        2.891469
  H            7.200006        9.750735        3.933012
  O            5.140374        1.369731        5.916320
  H            4.964383        2.005832        6.610416
  H            5.606137        0.658289        6.357093
  O            7.814969        4.391763       10.542822
  H            8.517237        4.540340        9.908701
  H            7.232718        5.144552       10.434848
  O            0.962912        9.507349        0.488811
  H            1.198927       10.286847       -0.015220
  H            0.021335        9.406380        0.345266
  O            6.736188        8.111260       11.365005
  H            7.320094        8.714826       11.825578
  H            7.036945        7.240809       11.628114
  O            2.940644       10.288826        9.271983
  H            3.254559        9.580192        8.709256
  H            2.184082       10.646317        8.805956
  O           11.161987        3.470537        4.329761
  H           11.815402        3.931134        4.857270
  H           11.631458        2.715000        3.974618
  O            8.538097        2.724262        5.552375
  H            7.600382        2.626966        5.721462
  H            8.630917        2.550192        4.615118
  O            5.961975        6.632410        3.918646
  H            6.650861        7.157196        4.327793
  H            5.455717        6.287404        4.654880
  O            9.780941        1.892345        1.262207
  H            9.587956        1.737240        2.187445
  H           10.575391        1.383946        1.095635
  O           10.100743       10.132024       10.464869
  H           10.423592       10.812550       11.056493
  H            9.152495       10.265099       10.442896
  O            0.635818        4.822295        2.105597
  H            0.709028        3.867538        2.126713
  H            0.454949        5.067918        3.013519
  O            2.199411        3.711278        6.602163
  H            2.827557        3.081531        6.957436
  H            1.634133        3.928963        7.344080
  O            6.920212       11.384350       10.765962
  H            7.014220       12.323132       10.600986
  H            7.315493       11.252843       11.628415
  O           11.980260        8.485500        3.561341
  H           12.365777        8.319491        4.422261
  H           12.311552        7.775396        3.010555
  O            1.240174        2.517454       -0.002836
  H            1.963397        2.460067        0.622482
  H            0.495526        2.128526        0.457164
  O            5.521035        8.846410        6.654357
  H            5.890685        9.377063        5.947864
  H            5.131769        8.093333        6.208585
  O           11.642193        4.826403        9.510536
  H           12.265256        4.706988        8.792972
  H           10.782744        4.730944        9.098711
  O            3.251443        4.799982       12.187616
  H            3.620596        3.918092       12.129645
  H            2.304803        4.666811       12.128408
  O            2.688015        6.662793        7.805001
  H            1.919275        6.318322        7.349210
  H            3.142898        7.185811        7.144017
  O            4.010922       12.263105       11.197239
  H            4.375299       12.335788       10.314453
  H            3.770963       11.339658       11.281095
  O            4.358118        2.755651        2.080371
  H            4.206615        2.024571        2.680317
  H            4.717377        3.448987        2.634973
  O            0.163024        9.302535       10.339807
  H            1.084226        9.071311       10.216157
  H            0.013122       10.022215        9.725839
  O            3.939504        8.999128        3.801176
  H            4.017423        8.044511        3.801003
  H            3.793552        9.226496        4.720072
  O            5.358587        4.271943        5.910398
  H            6.002288        4.186807        6.614506
  H            4.608412        4.700893        6.323442
  O            6.622012       11.359589        7.734519
  H            6.112849       11.624226        8.501387
  H            6.834452       10.439544        7.894995
  O           -0.062492       11.933267        2.169148
  H            0.557064       12.412863        2.720060
  H            0.224013       11.021107        2.226110
  O            9.047711        9.866157        0.688021
  H            9.928325        9.662824        1.005103
  H            8.505728        9.874454        1.477674
  O            8.852950        6.955111       10.000283
  H            9.760623        6.789317       10.257205
  H            8.757666        7.906217       10.060979
  O            1.909243        6.508935        4.333046
  H            2.014303        5.657705        4.759352
  H            1.986865        7.144004        5.045807
  O            1.260035        5.893267       10.354982
  H            0.689371        6.214377       11.053979
  H            1.331232        6.630330        9.747499
  O            6.247625        6.577013        8.099831
  H            6.577044        6.451397        7.209287
  H            5.521501        5.957008        8.175362
  O           10.667632        2.877839        6.662355
  H           10.709496        1.933041        6.510798
  H           11.196594        3.017090        7.448596
  O            4.372935        7.030246       11.071272
  H            5.001968        6.742088       10.408967
  H            3.542368        7.096208       10.598860
  O            8.147408        5.402899        5.001741
  H            8.892866        4.978879        4.575282
  H            7.389486        4.885688        4.727128
  O            4.082871        3.727729        9.232748
  H            4.244241        3.103868        9.941354
  H            4.199614        4.586779        9.639898
  O            1.370607        0.999395        6.780286
  H            1.121192        0.566141        5.963310
  H            0.742935        1.717136        6.871069
  O            7.528581        4.580778        2.341045
  H            8.351253        4.098862        2.249757
  H            7.791665        5.501630        2.354616
  O           10.721035        5.124619        1.722418
  H           10.718520        4.192688        1.943470
  H           10.362545        5.555132        2.499276
  O            1.807710        7.110875        1.535717
  H            1.032105        7.159862        0.975894
  H            2.437564        7.702889        1.123200
  O            9.396922        6.862957        0.710001
  H            8.736548        7.515446        0.945653
  H           10.233293        7.304926        0.860044
  O           10.760937        7.730917        7.949914
  H            9.806014        7.703466        7.881104
  H           10.930996        8.341020        8.668399
  O            9.027450       11.448120        7.923454
  H            9.276683       10.530424        8.037838
  H            9.403646       11.894049        8.683053
  O            6.433900        4.331036        0.218951
  H            5.985023        3.506260        0.030221
  H            5.775610        5.005497        0.048296
  O           10.082539       11.016000        4.348274
  H           10.890140       10.977400        3.834799
  H            9.383718       11.028329        3.693397
  O            9.304742        8.484140        5.625451
  H            8.358731        8.620164        5.688107
  H            9.685327        9.262576        6.033567
  O            7.299264       11.912114        1.633627
  H            7.384319       12.067258        2.574936
  H            8.043937       12.374288        1.247333
  O            5.369737       11.941190        4.135616
  H            4.628929       12.184530        3.579420
  H            5.034406       11.229455        4.681832
